&GLOBAL
  RUN_TYPE  GEO_OPT 
  PRINT_LEVEL MEDIUM
&END GLOBAL

&MOTION
 &GEO_OPT
   MAX_ITER  1000
   MAX_DR    1.E-3
   RMS_DR    3.E-4
   MAX_FORCE 1.E-4
   RMS_FORCE 3.E-5
   OPTIMIZER BFGS
 &END GEO_OPT
&END MOTION

&FORCE_EVAL
 &DFT
   BASIS_SET_FILE_NAME  BASIS_SET 
   POTENTIAL_FILE_NAME  GTH_POTENTIALS
UKS T
  MULTIPLICITY 2
  CHARGE -1
  PLUS_U_METHOD LOWDIN
 &MGRID
   NGRIDS 5
  &RS_GRID
  &END RS_GRID
   CUTOFF 500
   COMMENSURATE
  &END MGRID
  &QS
    EXTRAPOLATION ASPC
    EXTRAPOLATION_ORDER 3
    EPS_DEFAULT 1.0E-12
   &CDFT 
     TYPE_OF_CONSTRAINT Hirshfeld 
     ATOMIC_CHARGES T 
     STRENGTH 0  
     TARGET 1 
    &ATOM_GROUP 
      ATOMS 18  
      COEFF 1
      CONSTRAINT_TYPE  MAGNETIZATION  
     &END ATOM_GROUP
     &OUTER_SCF 
       TYPE CDFT_CONSTRAINT 
       EPS_SCF 1E-3 
       OPTIMIZER SECANT
       STEP_SIZE 0.05 
     &END OUTER_SCF
     &HIRSHFELD_CONSTRAINT
       SHAPE_FUNCTION DENSITY 
     &END HIRSHFELD_CONSTRAINT
    &END CDFT
  &END QS
  &SCF
    EPS_SCF 5.0E-7
    MAX_SCF 100
    SCF_GUESS RESTART 
   &OUTER_SCF
     MAX_SCF 20
     OPTIMIZER DIIS
     STEP_SIZE 0.15
     EPS_SCF 5.0E-7
   &END OUTER_SCF
   &OT T 
    MINIMIZER CG
    ALGORITHM IRAC
    PRECONDITIONER FULL_ALL
    ENERGY_GAP 0.001
   &END OT
  &END SCF
  &PRINT
   &E_DENSITY_CUBE
     STRIDE 3 
   &END E_DENSITY_CUBE
  &END PRINT
  &XC
   &XC_FUNCTIONAL PBE
   &END XC_FUNCTIONAL
   &VDW_POTENTIAL
     POTENTIAL_TYPE PAIR_POTENTIAL
    &PAIR_POTENTIAL
      TYPE DFTD3
      PARAMETER_FILE_NAME dftd3.dat
      REFERENCE_FUNCTIONAL PBE
    &END PAIR_POTENTIAL
   &END VDW_POTENTIAL
   &XC_GRID
     XC_SMOOTH_RHO NN10 
     XC_DERIV SPLINE2_smooth
   &END XC_GRID
  &END XC
 &END DFT
 &SUBSYS
  &CELL
   ABC 12.9938   11.8360   25.0000
  &END CELL
&COORD
 Ti         1.6219013218        1.4792008270        7.8028305660
 Ti         4.8726749372        1.4734032843       17.1882014475
 Ti         4.8726750092        1.4762455150       10.6382203635
 Ti         1.6223373464        1.4809593470       14.3781435160
 Ti         4.8726749854        0.0000000048        7.3223961677
 Ti         1.6240967612       -0.0000000376       17.6907953879
 Ti         1.6239838170        0.0000000048       11.0188315642
 Ti         4.8726749860        0.0000000348       13.9846914384
 Ti         8.1234486862        1.4792008079        7.8028305498
 Ti        11.3695749389        1.4798264393       17.1944992430
 Ti        11.3695750312        1.4793012881       10.6276008455
 Ti         8.1230125822        1.4809593534       14.3781435184
 Ti        11.3695750273       -0.0000000142        7.3117389517
 Ti         8.1212531227       -0.0000000478       17.6907953884
 Ti         8.1213662106       -0.0000000029       11.0188315366
 Ti        11.3695749521       -0.0000000107       13.9782164776
 Ti         1.6227754193        4.4388362242        7.8067583105
 Ti         4.8726749594        4.4264775117       17.1918398359
 Ti         4.8726750383        4.4362023451       10.6816886811
 Ti         1.6217783569        4.4398315213       14.3776731656
 Ti         4.8726749960        2.9681548128        7.3426769584
 Ti         1.6262311417        2.9585866545       17.6908824613
 Ti         1.6270373583        2.9568458626       11.0154784729
 Ti         4.8726750087        2.9844415180       13.9523074839
 Ti         8.1225745876        4.4388362122        7.8067583074
 Ti        11.3695749343        4.4387756239       17.1938013991
 Ti        11.3695750359        4.4371129342       10.6302294718
 Ti         8.1235716599        4.4398315351       14.3776731724
 Ti        11.3695750157        2.9589996921        7.3134432125
 Ti         8.1191187427        2.9585866348       17.6908824655
 Ti         8.1183126977        2.9568458526       11.0154784603
 Ti        11.3695749787        2.9581225042       13.9788974319
 Ti         1.6227754244        7.3971637883        7.8067583165
 Ti         4.8726749572        7.4095224010       17.1918397656
 Ti         4.8726750380        7.3997976233       10.6816887053
 Ti         1.6217783139        7.3961684411       14.3776731470
 Ti         4.8726749955        5.9180000008        7.3610044251
 Ti         1.6289515631        5.9179999512       17.6872022835
 Ti         1.6233057113        5.9179999987       11.0236527772
 Ti         4.8726749748        5.9179999539       14.0363153871
 Ti         8.1225745875        7.3971637732        7.8067583146
 Ti        11.3695749329        7.3972243221       17.1938013965
 Ti        11.3695750340        7.3988870525       10.6302294772
 Ti         8.1235716634        7.3961683780       14.3776731491
 Ti        11.3695750135        5.9179999888        7.3148052419
 Ti         8.1163983299        5.9179999419       17.6872023187
 Ti         8.1220443745        5.9179999891       11.0236527847
 Ti        11.3695750358        5.9179999887       13.9773391641
 Ti         1.6219013186       10.3567991774        7.8028305717
 Ti         4.8726749391       10.3625966411       17.1882014077
 Ti         4.8726750105       10.3597544938       10.6382204059
 Ti         1.6223373760       10.3550406159       14.3781435052
 Ti         4.8726750004        8.8678452173        7.3426770107
 Ti         1.6262311664        8.8774132717       17.6908824328
 Ti         1.6270373758        8.8791541415       11.0154784811
 Ti         4.8726749965        8.8515585268       13.9523074198
 Ti         8.1234486838       10.3567991741        7.8028305566
 Ti        11.3695749429       10.3561734835       17.1944992395
 Ti        11.3695750371       10.3566986882       10.6276008555
 Ti         8.1230125567       10.3550405706       14.3781435013
 Ti        11.3695750146        8.8770002799        7.3134432240
 Ti         8.1191187203        8.8774132726       17.6908824277
 Ti         8.1183126797        8.8791541361       11.0154784654
 Ti        11.3695749602        8.8778774670       13.9788974352
  O         1.6119864066        1.4762057445        9.5990838636
  O         1.6116030587        1.4778023343       16.2078682682
  O         4.8726749683        1.4547309838       15.4019336630
  O         4.8726750013        1.4698745423        8.8071256240
  O         4.8726749419        1.4867203420        6.2599164959
  O         4.8726749470        1.4627455179       12.8217237977
  O         1.6141246408        1.4791489540       18.7666607647
  O         1.6134049646        1.4789102484       12.1615706367
  O         0.3999378874       -0.0000000019        7.4408523197
  O         3.5862824693        0.0000000048       10.8259458712
  O         2.8397389869        0.0000000023        7.4461775480
  O         6.1590675523        0.0000000029       10.8259458859
  O         6.0983935444       -0.0000000433       17.5604018896
  O         2.8907036719        0.0000000061       14.1709084732
  O         3.6469563101       -0.0000000376       17.5604018848
  O         0.3381341007       -0.0000000038       14.1696146256
  O         8.1333636138        1.4762057238        9.5990838388
  O         8.1337468035        1.4778022778       16.2078682672
  O        11.3695749961        1.4785503120       15.3955246517
  O        11.3695751282        1.4783992861        8.7953898836
  O        11.3695749984        1.4807252797        6.2360698316
  O        11.3695749857        1.4786690609       12.8265998349
  O         8.1312252328        1.4791489324       18.7666607773
  O         8.1319450767        1.4789102204       12.1615706147
  O         6.9056110109       -0.0000000007        7.4461775066
  O        10.0935128554       -0.0000000127       10.8252841320
  O         9.3454121521       -0.0000000135        7.4408523676
  O        12.6456372078       -0.0000000058       10.8252842069
  O        12.5879103514       -0.0000000378       17.5552199561
  O         9.4072158355       -0.0000000182       14.1696146551
  O        10.1512394987       -0.0000000440       17.5552199055
  O         6.8546462961       -0.0000000054       14.1709084098
  O         1.6187851994        4.4410627681        9.6036262116
  O         1.6099658025        4.4328650418       16.2076526464
  O         4.8726750320        4.3522220399       15.4084021860
  O         4.8726749990        4.4350966299        8.8205040345
  O         4.8726749887        4.4436804029        6.2698566918
  O         4.8726750156        4.3456132642       12.7581356682
  O         1.6259844717        4.4403985793       18.7651790670
  O         1.6165449868        4.4344772501       12.1625450237
  O         0.4004258095        2.9598769034        7.4444679547
  O         3.5824115295        2.9426430583       10.8089220429
  O         2.8398452645        2.9591058355        7.4522741696
  O         6.1629385164        2.9426430459       10.8089220033
  O         6.0975221899        2.9519649309       17.5620322494
  O         2.8851928359        2.9531184924       14.1721798423
  O         3.6478276731        2.9519649684       17.5620322126
  O         0.3354201759        2.9556409195       14.1696929192
  O         8.1265648342        4.4410627560        9.6036262020
  O         8.1353840789        4.4328649956       16.2076526606
  O        11.3695749228        4.4367937190       15.3951865121
  O        11.3695750894        4.4394335121        8.7986701516
  O        11.3695749931        4.4390268575        6.2379043179
  O        11.3695749426        4.4370014562       12.8264296553
  O         8.1193653537        4.4403985523       18.7651790804
  O         8.1288050876        4.4344772103       12.1625449994
  O         6.9055047411        2.9591058253        7.4522741494
  O        10.0928163731        2.9586056215       10.8238054117
  O         9.3449242173        2.9598768885        7.4444679919
  O        12.6463336859        2.9586056521       10.8238054904
  O        12.5886251476        2.9594147699       17.5562501646
  O         9.4099297879        2.9556408733       14.1696929376
  O        10.1505247121        2.9594147397       17.5562501720
  O         6.8601570989        2.9531184532       14.1721797784
  O         1.6187852111        7.3949372409        9.6036262199
  O         1.6099658033        7.4031348701       16.2076526098
  O         4.8726750293        7.4837778454       15.4084021809
  O         4.8726750016        7.4009033902        8.8205040637
  O         4.8726749895        7.3923196319        6.2698567373
  O         4.8726750115        7.4903867082       12.7581356988
  O         1.6259845338        7.3956013511       18.7651790357
  O         1.6165450088        7.4015227360       12.1625450372
  O         0.4005737224        5.9180000003        7.4453775267
  O         3.5892159151        5.9179999939       10.8375122934
  O         2.8393417533        5.9180000099        7.4534551176
  O         6.1561341425        5.9179999902       10.8375122941
  O         6.0958050983        5.9179999356       17.5356175988
  O         2.8644055798        5.9179999411       14.1826291196
  O         3.6495447790        5.9179999370       17.5356175509
  O         0.3305548469        5.9180000029       14.1715475166
  O         8.1265648312        7.3949372237        9.6036262092
  O         8.1353840890        7.4031348682       16.2076526192
  O        11.3695749213        7.3992062505       15.3951865104
  O        11.3695750899        7.3965664547        8.7986701554
  O        11.3695749869        7.3969731166        6.2379043211
  O        11.3695749417        7.3989985203       12.8264296523
  O         8.1193652903        7.3956013483       18.7651790438
  O         8.1288050531        7.4015227492       12.1625450090
  O         6.9060082524        5.9180000038        7.4534551197
  O        10.0916227464        5.9179999910       10.8281864580
  O         9.3447763014        5.9179999905        7.4453775557
  O        12.6475272996        5.9179999938       10.8281865105
  O        12.5896916641        5.9179999734       17.5543601356
  O         9.4147950121        5.9179999857       14.1715475514
  O        10.1494581902        5.9179999691       17.5543601597
  O         6.8809444538        5.9179999325       14.1826290402
  O         1.6119864169       10.3597942478        9.5990838716
  O         1.6116030538       10.3581976264       16.2078682570
  O         4.8726749694       10.3812690043       15.4019336294
  O         4.8726750004       10.3661254626        8.8071256604
  O         4.8726749542       10.3492796691        6.2599165181
  O         4.8726749469       10.3732544778       12.8217237819
  O         1.6141246646       10.3568509511       18.7666607528
  O         1.6134049636       10.3570897640       12.1615706416
  O         0.4004258106        8.8761230956        7.4444679578
  O         3.5824115307        8.8933569368       10.8089221149
  O         2.8398452642        8.8768941729        7.4522741813
  O         6.1629385174        8.8933569460       10.8089220711
  O         6.0975221917        8.8840349765       17.5620321515
  O         2.8851928572        8.8828815166       14.1721798514
  O         3.6478276713        8.8840349476       17.5620321189
  O         0.3354201944        8.8803590466       14.1696929092
  O         8.1333635895       10.3597942424        9.5990838484
  O         8.1337468145       10.3581976209       16.2078682502
  O        11.3695750052       10.3574496420       15.3955246421
  O        11.3695751448       10.3576006761        8.7953898912
  O        11.3695749944       10.3552746861        6.2360698383
  O        11.3695749886       10.3573309127       12.8265998383
  O         8.1312252096       10.3568509406       18.7666607614
  O         8.1319450850       10.3570897669       12.1615706214
  O         6.9055047429        8.8768941646        7.4522741610
  O        10.0928163693        8.8773943578       10.8238054203
  O         9.3449242175        8.8761231022        7.4444680043
  O        12.6463336893        8.8773943305       10.8238055016
  O        12.5886251558        8.8765851627       17.5562501564
  O         9.4099297815        8.8803590730       14.1696929180
  O        10.1505247075        8.8765851860       17.5562501630
  O         6.8601570833        8.8828815268       14.1721797845
&END COORD
  &KIND H
    BASIS_SET   DZVP-MOLOPT-SR-GTH
    POTENTIAL GTH-PBE-q1
  &END KIND
  &KIND Ti
    BASIS_SET  DZVP-MOLOPT-SR-GTH
    POTENTIAL GTH-PBE-q12
   &DFT_PLUS_U ON
     L 2
     U_MINUS_J [eV] 4.2
     U_RAMPING [eV] 0
   &END DFT_PLUS_U
  &END KIND
  &KIND O
    BASIS_SET  DZVP-MOLOPT-SR-GTH
    POTENTIAL GTH-PBE-q6
  &END KIND
  &KIND C
    BASIS_SET  DZVP-MOLOPT-SR-GTH
    POTENTIAL GTH-PBE-q4
  &END KIND
 &END SUBSYS
&END FORCE_EVAL
