&GLOBAL
  RUN_TYPE  GEO_OPT
  PRINT_LEVEL MEDIUM
&END GLOBAL

&MOTION
 &GEO_OPT
   MAX_ITER  1000
   MAX_DR    1.E-3
   RMS_DR    3.E-4
   MAX_FORCE 1.E-4
   RMS_FORCE 3.E-5
   OPTIMIZER BFGS
 &END GEO_OPT
 &CONSTRAINT
  &FIXED_ATOMS
    COMPONENTS_TO_FIX  XYZ
    LIST 1..195
  &END FIXED_ATOMS
 &END CONSTRAINT
&END MOTION

&FORCE_EVAL
 &DFT
   BASIS_SET_FILE_NAME  BASIS_SET 
   POTENTIAL_FILE_NAME  GTH_POTENTIALS
   WFN_RESTART_FILE_NAME PROJECT-24-RESTART.wfn
UKS T
  MULTIPLICITY 2
  CHARGE -1
  PLUS_U_METHOD LOWDIN
 &MGRID
   NGRIDS 5
  &RS_GRID
  &END RS_GRID
   CUTOFF 500
   COMMENSURATE
  &END MGRID
  &QS
    EXTRAPOLATION ASPC
    EXTRAPOLATION_ORDER 3
    EPS_DEFAULT 1.0E-12
   &CDFT 
     TYPE_OF_CONSTRAINT Hirshfeld 
     ATOMIC_CHARGES T 
     STRENGTH -0.028073345572 
     TARGET 1 
    &ATOM_GROUP 
      ATOMS 40  
      COEFF 1 
      CONSTRAINT_TYPE  MAGNETIZATION
     &END ATOM_GROUP
     &OUTER_SCF 
       TYPE CDFT_CONSTRAINT 
       EPS_SCF 1E-3 
       OPTIMIZER SECANT
       STEP_SIZE 0.05 
     &END OUTER_SCF
     &HIRSHFELD_CONSTRAINT
       SHAPE_FUNCTION DENSITY 
     &END HIRSHFELD_CONSTRAINT
    &END CDFT
  &END QS
  &SCF
    EPS_SCF 5.0E-7
    MAX_SCF 100
    SCF_GUESS RESTART 
   &OUTER_SCF
     MAX_SCF 20
     OPTIMIZER DIIS
     STEP_SIZE 0.15
     EPS_SCF 5.0E-7
   &END OUTER_SCF
   &OT T 
    MINIMIZER CG
    ALGORITHM IRAC
    PRECONDITIONER FULL_ALL
    ENERGY_GAP 0.001
   &END OT
  &END SCF
  &PRINT
   &E_DENSITY_CUBE
     STRIDE 3 
   &END E_DENSITY_CUBE
  &END PRINT
  &XC
   &XC_FUNCTIONAL PBE
   &END XC_FUNCTIONAL
   &VDW_POTENTIAL
     POTENTIAL_TYPE PAIR_POTENTIAL
    &PAIR_POTENTIAL
      TYPE DFTD3
      PARAMETER_FILE_NAME dftd3.dat
      REFERENCE_FUNCTIONAL PBE
    &END PAIR_POTENTIAL
   &END VDW_POTENTIAL
   &XC_GRID
     XC_SMOOTH_RHO NN10 
     XC_DERIV SPLINE2_smooth
   &END XC_GRID
  &END XC
 &END DFT
 &SUBSYS
  &CELL
   ABC 12.9938   11.8360   25.0000
  &END CELL
&COORD
 Ti         1.6090475397        1.4485253053        7.8176089475
 Ti         4.8620344838        1.4361349465       17.1832171266
 Ti         4.8586791896        1.4484488958       10.6938828264
 Ti         1.6103427592        1.4502339660       14.3895329723
 Ti         4.8582708177       -0.0228432007        7.3500303155
 Ti         1.6233412070       -0.0299828869       17.7005568591
 Ti         1.6152670422       -0.0322044935       11.0271862956
 Ti         4.8571296436       -0.0053883818       13.9499105293
 Ti         8.1077858186        1.4485159483        7.8155566276
 Ti        11.3583071173        1.4471451799       17.2125361037
 Ti        11.3560876883        1.4470790948       10.6403905889
 Ti         8.1140831935        1.4493692830       14.3748793294
 Ti        11.3560390700       -0.0316272676        7.3252893570
 Ti         8.1018534337       -0.0338157529       17.6951302010
 Ti         8.1032269293       -0.0327878040       11.0244536247
 Ti        11.3587843360       -0.0323431110       13.9930578555
 Ti         1.6088149724        4.4068500184        7.8184753261
 Ti         4.8704536097        4.4106772467       17.3002194861
 Ti         4.8591311466        4.4086565608       10.6992033653
 Ti         1.6126185500        4.4070926757       14.3944706656
 Ti         4.8583118570        2.9282591824        7.3724224955
 Ti         1.6230558730        2.9290760488       17.6977430015
 Ti         1.6113322251        2.9285720040       11.0359145446
 Ti         4.8613660593        2.9397700026       14.0734281476
 Ti         8.1081575276        4.4068696054        7.8158908970
 Ti        11.3633829917        4.4099072985       17.2117358864
 Ti        11.3566852798        4.4088620534       10.6405627941
 Ti         8.1180685048        4.4066912312       14.3810630962
 Ti        11.3560765203        2.9273378261        7.3263380926
 Ti         8.1139275763        2.9144234149       17.6615272627
 Ti         8.1082781582        2.9285811662       11.0318035750
 Ti        11.3605503639        2.9280446748       13.9911120510
 Ti         1.6084231066        7.3661404310        7.8139958326
 Ti         4.8641588161        7.3782465274       17.1743147383
 Ti         4.8593630898        7.3662110088       10.6583630518
 Ti         1.6138307914        7.3650330313       14.3902466166
 Ti         4.8583929578        5.8781300599        7.3576570156
 Ti         1.6241029021        5.8920526293       17.7038136291
 Ti         1.6159655282        5.8881690095       11.0295456815
 Ti         4.8624942548        5.8351611360       14.0064188347
 Ti         8.1086422136        7.3662408165        7.8119412359
 Ti        11.3581346697        7.3696206890       17.2139870290
 Ti        11.3563440982        7.3663601809       10.6386162947
 Ti         8.1145342383        7.3667408465       14.3759250182
 Ti        11.3561121089        5.8864154498        7.3252986369
 Ti         8.1104594729        5.9061047920       17.6653684016
 Ti         8.1039325109        5.8883484844       11.0253011252
 Ti        11.3609332314        5.8882847298       13.9925516877
 Ti         1.6083322325       10.3248550593        7.8128108528
 Ti         4.8571139007       10.3227221641       17.1843479871
 Ti         4.8585428598       10.3230152137       10.6478502117
 Ti         1.6109274411       10.3268914029       14.3891695554
 Ti         4.8583557424        8.8443270111        7.3344969483
 Ti         1.6229723788        8.8496020313       17.7025112232
 Ti         1.6121489688        8.8457828656       11.0289999718
 Ti         4.8580665108        8.8332972777       13.9706496018
 Ti         8.1086615858       10.3249267198        7.8108821158
 Ti        11.3580307248       10.3267351265       17.2113964438
 Ti        11.3561367904       10.3254782609       10.6385227420
 Ti         8.1072830490       10.3272806626       14.3843692890
 Ti        11.3560914829        8.8453841554        7.3240138494
 Ti         8.1054993906        8.8523436836       17.6964470016
 Ti         8.1070543204        8.8466504552       11.0263946376
 Ti        11.3592778297        8.8464779218       13.9935413321
  O         1.6037804868        1.4509184998        9.6147043489
  O         1.6022595916        1.4435213683       16.2198073918
  O         4.8436205971        1.3473937137       15.4026565937
  O         4.8565384259        1.4455799970        8.8306863662
  O         4.8571095385        1.4537769945        6.2784820690
  O         4.8580013241        1.3687106956       12.7718782113
  O         1.6141835555        1.4523776685       18.7743451567
  O         1.5995342700        1.4458299547       12.1760106583
  O         0.3858621723       -0.0306366544        7.4531338343
  O         3.5667713536       -0.0431985588       10.8209364248
  O         2.8245276922       -0.0311456308        7.4601191186
  O         6.1470744325       -0.0426305477       10.8189484351
  O         6.0874428834       -0.0376230761       17.5619753059
  O         2.8670974100       -0.0381820316       14.1737720722
  O         3.6354060611       -0.0416152106       17.5741188084
  O         0.3191101022       -0.0337893063       14.1893475050
  O         8.1113159774        1.4508266598        9.6133558025
  O         8.1483510798        1.4387502027       16.2113387058
  O        11.3480323164        1.4486309662       15.4144589737
  O        11.3524591578        1.4489378442        8.8080647828
  O        11.3544328293        1.4484266337        6.2504946740
  O        11.3599658115        1.4467190451       12.8404662707
  O         8.0945962768        1.4600287224       18.7615967572
  O         8.1100870425        1.4458356220       12.1744321426
  O         6.8902730988       -0.0312197360        7.4597338719
  O        10.0762614959       -0.0313006328       10.8339279755
  O         9.3286835302       -0.0306054648        7.4509316222
  O        12.6313436294       -0.0312081468       10.8299482700
  O        12.5760850514       -0.0273476790       17.5682659373
  O         9.3967118202       -0.0372663117       14.1751626193
  O        10.1384051000       -0.0299793328       17.5826990209
  O         6.8484555152       -0.0350611932       14.1810286034
  O         1.6031622861        4.4050655767        9.6156112916
  O         1.6061590887        4.4177771986       16.2257187503
  O         4.8470881042        4.5059537606       15.4584292970
  O         4.8568633137        4.4093411928        8.8339886075
  O         4.8570363774        4.4032964473        6.2817581056
  O         4.8606158393        4.4990842211       12.7805194643
  O         1.6262855725        4.4077413203       18.7766474518
  O         1.5991981603        4.4101156272       12.1773023480
  O         0.3858882592        2.9275330191        7.4544434408
  O         3.5726565382        2.9289053099       10.8491293265
  O         2.8238111371        2.9278065353        7.4634853057
  O         6.1423180307        2.9284442112       10.8465341521
  O         6.1126937537        2.8911668228       17.4274237801
  O         2.8475855433        2.9290826519       14.1969851458
  O         3.6395519457        2.9155261154       17.5283832065
  O         0.3158290209        2.9286990299       14.1937028112
  O         8.1123078692        4.4050446631        9.6138300336
  O         8.1677871982        4.4139907744       16.2110060230
  O        11.3494166204        4.4103538049       15.4132018219
  O        11.3528587722        4.4069057430        8.8082163609
  O        11.3543256999        4.4067361698        6.2505574594
  O        11.3612860327        4.4093413549       12.8401476634
  O         7.9721657055        4.4077593464       18.7692026997
  O         8.1099795932        4.4102740396       12.1746613477
  O         6.8910638849        2.9277960755        7.4626609536
  O        10.0760331119        2.9280529596       10.8381916108
  O         9.3287519324        2.9275465824        7.4522997364
  O        12.6319233187        2.9277827266       10.8349353564
  O        12.5783537427        2.9295944182       17.5690391592
  O         9.4045256367        2.9259659037       14.1718120301
  O        10.1360692564        2.9370132074       17.5966064001
  O         6.8723598633        2.9290651548       14.2053561952
  O         1.5987461066        7.3682558919        9.6105027208
  O         1.6186526320        7.3664626075       16.2231969090
  O         4.8376035579        7.4046296416       15.3909730261
  O         4.8569240563        7.3724346478        8.8212136159
  O         4.8569728725        7.3593858032        6.2710897695
  O         4.8616280927        7.3691172680       12.8306000879
  O         1.6041816597        7.3700996844       18.7813794360
  O         1.5977789725        7.3673175675       12.1743325334
  O         0.3858777581        5.8858357154        7.4532020809
  O         3.5667960027        5.8980929313       10.8231688647
  O         2.8243397256        5.8861917603        7.4625399060
  O         6.1485695157        5.8976758546       10.8200790377
  O         6.1183830219        5.9504655100       17.4654805347
  O         2.8654849087        5.8916105014       14.1815734361
  O         3.6521047529        5.9126052480       17.6140062069
  O         0.3202590417        5.8919835519       14.1924547722
  O         8.1171493732        7.3684570927        9.6091371396
  O         8.1490231876        7.3777153863       16.2122773700
  O        11.3472817701        7.3669176035       15.4151987139
  O        11.3525520613        7.3670207860        8.8060319650
  O        11.3543992695        7.3653147219        6.2491377102
  O        11.3601618765        7.3687756763       12.8407524604
  O         8.1023928662        7.3617648495       18.7681801288
  O         8.1115225036        7.3674303496       12.1727580866
  O         6.8906536623        5.8862952271        7.4616068058
  O        10.0766904825        5.8872334419       10.8343057051
  O         9.3288387691        5.8858588278        7.4510796986
  O        12.6314756662        5.8874613206       10.8309693072
  O        12.5784972449        5.8894080516       17.5734517856
  O         9.3999594181        5.8934456972       14.1694403597
  O        10.1372965523        5.8813587760       17.5987154229
  O         6.8535335703        5.8929630783       14.1961432247
  O         1.5992722758       10.3228103545        9.6093822489
  O         1.6068363312       10.3248043948       16.2201148383
  O         4.8550450653       10.3003633841       15.4002457921
  O         4.8565300155       10.3189118479        8.8157520189
  O         4.8570533804       10.3295118281        6.2682238428
  O         4.8578072705       10.3110152057       12.8176643352
  O         1.5997081336       10.3273402556       18.7782093635
  O         1.5962678791       10.3247571234       12.1725026038
  O         0.3857163987        8.8455565045        7.4492551461
  O         3.5710785319        8.8452287279       10.8338033175
  O         2.8245589116        8.8452957201        7.4553479902
  O         6.1438556786        8.8456771894       10.8306987653
  O         6.0876518642        8.8496420899       17.5614550393
  O         2.8726529313        8.8482503412       14.1706521471
  O         3.6364547821        8.8565364619       17.5779512073
  O         0.3222500173        8.8447929160       14.1922264923
  O         8.1165336625       10.3231257068        9.6083666917
  O         8.1198618326       10.3252817760       16.2201676520
  O        11.3497522481       10.3254113607       15.4125023236
  O        11.3524880346       10.3247558398        8.8059323113
  O        11.3543921009       10.3258304060        6.2491413061
  O        11.3602406408       10.3245655066       12.8402510652
  O         8.1121021747       10.3269883663       18.7764451816
  O         8.1103308830       10.3250253638       12.1713981111
  O         6.8903592152        8.8454562011        7.4548767004
  O        10.0769363589        8.8461034811       10.8351612376
  O         9.3289104330        8.8456834510        7.4471397126
  O        12.6308746688        8.8459508594       10.8312003170
  O        12.5773847476        8.8445289705       17.5641553469
  O         9.3943030389        8.8507156027       14.1746748071
  O        10.1398736031        8.8482138035       17.5848957292
  O         6.8426718917        8.8450642748       14.1807118722
  O         5.3175151057        4.3281609740       19.5263749343
  H         5.0109683566        5.1210036367       19.9983143929
  H         6.3179748153        4.3820522749       19.5017069335
&END COORD
  &KIND H
    BASIS_SET   DZVP-MOLOPT-SR-GTH
    POTENTIAL GTH-PBE-q1
  &END KIND
  &KIND Ti
    BASIS_SET  DZVP-MOLOPT-SR-GTH
    POTENTIAL GTH-PBE-q12
   &DFT_PLUS_U ON
     L 2
     U_MINUS_J [eV] 4.2
     U_RAMPING [eV] 0
   &END DFT_PLUS_U
  &END KIND
  &KIND O
    BASIS_SET  DZVP-MOLOPT-SR-GTH
    POTENTIAL GTH-PBE-q6
  &END KIND
  &KIND C
    BASIS_SET  DZVP-MOLOPT-SR-GTH
    POTENTIAL GTH-PBE-q4
  &END KIND
 &END SUBSYS
&END FORCE_EVAL
