&GLOBAL
  RUN_TYPE  GEO_OPT 
  PRINT_LEVEL MEDIUM
&END GLOBAL

&MOTION
 &GEO_OPT
   MAX_ITER  1000
   MAX_DR    1.E-3
   RMS_DR    3.E-4
   MAX_FORCE 1.E-4
   RMS_FORCE 3.E-5
   OPTIMIZER BFGS
 &END GEO_OPT
&END MOTION

&FORCE_EVAL
 &DFT
   BASIS_SET_FILE_NAME  BASIS_SET 
   POTENTIAL_FILE_NAME  GTH_POTENTIALS
UKS T
  MULTIPLICITY 2
  CHARGE -1
  PLUS_U_METHOD LOWDIN
 &MGRID
   NGRIDS 5
  &RS_GRID
  &END RS_GRID
   CUTOFF 800
   COMMENSURATE
  &END MGRID
  &QS
    EXTRAPOLATION ASPC
    EXTRAPOLATION_ORDER 3
    EPS_DEFAULT 1.0E-12
   &CDFT 
     TYPE_OF_CONSTRAINT Hirshfeld 
     ATOMIC_CHARGES T 
     STRENGTH 0  
     TARGET 1 
    &ATOM_GROUP 
      ATOMS 28  
      COEFF 1 
      CONSTRAINT_TYPE  MAGNETIZATION  
     &END ATOM_GROUP
     &OUTER_SCF 
       TYPE CDFT_CONSTRAINT 
       EPS_SCF 1E-3 
       OPTIMIZER SECANT
       STEP_SIZE 0.05 
     &END OUTER_SCF
     &HIRSHFELD_CONSTRAINT
       SHAPE_FUNCTION DENSITY 
     &END HIRSHFELD_CONSTRAINT
    &END CDFT
  &END QS
  &SCF
    EPS_SCF 5.0E-7
    MAX_SCF 100
    SCF_GUESS RESTART 
   &OUTER_SCF
     MAX_SCF 20
     OPTIMIZER DIIS
     STEP_SIZE 0.15
     EPS_SCF 5.0E-7
   &END OUTER_SCF
   &OT T 
    MINIMIZER CG
    ALGORITHM IRAC
    PRECONDITIONER FULL_ALL
    ENERGY_GAP 0.001
   &END OT
  &END SCF
  &PRINT
   &E_DENSITY_CUBE
     STRIDE 3 
   &END E_DENSITY_CUBE
  &END PRINT
  &XC
   &XC_FUNCTIONAL PBE
   &END XC_FUNCTIONAL
   &VDW_POTENTIAL
     POTENTIAL_TYPE PAIR_POTENTIAL
    &PAIR_POTENTIAL
      TYPE DFTD3
      PARAMETER_FILE_NAME dftd3.dat
      REFERENCE_FUNCTIONAL PBE
    &END PAIR_POTENTIAL
   &END VDW_POTENTIAL
   &XC_GRID
     XC_SMOOTH_RHO NN10 
     XC_DERIV SPLINE2_smooth
   &END XC_GRID
  &END XC
 &END DFT
 &SUBSYS
  &CELL
   ABC 13.9105   13.9105   15.0489
  &END CELL
&COORD
 Ti        -0.0113008925       -0.0303632125       -0.0008189567
 Ti         2.3079019253        2.2897502018        1.5108306666
 Ti         4.6285282706       -0.0327751989        0.0007342469
 Ti         6.9358306525        2.2930686549        1.5042626912
 Ti         9.2589229182       -0.0281581135        0.0005705518
 Ti        11.5805554865        2.2884237027        1.5030927566
 Ti        -0.0136116783        4.6094098674        0.0004854962
 Ti         2.3117413943        6.9183554632        1.5040209473
 Ti         4.6283095942        4.6099411125       -0.0028163434
 Ti         6.9430419043        6.9250383111        1.5322243284
 Ti         9.2618149944        4.6060608058        0.0015951580
 Ti        11.5754696886        6.9327221247        1.5040163711
 Ti        -0.0092935712        9.2399401620        0.0007003962
 Ti         2.3064449034       11.5626245985        1.5030877675
 Ti         4.6252922983        9.2435533104        0.0016517990
 Ti         6.9512442647       11.5577834356        1.5041689135
 Ti         9.2579125621        9.2390590617       -0.0028675406
 Ti        11.5788774624       11.5607660176        1.5100930641
 Ti        -0.0121429604       -0.0300415098        3.0083996918
 Ti         2.3145736060        2.2966972564        4.5150693543
 Ti         4.6230493821       -0.0319727759        3.0087331175
 Ti         6.9424620900        2.2861723335        4.5154815520
 Ti         9.2630731661       -0.0286910796        3.0086137262
 Ti        11.5834098103        2.2855565240        4.5148640250
 Ti        -0.0136759234        4.6053847044        3.0085375945
 Ti         2.3042926845        6.9240529993        4.5154582078
 Ti         4.6438232565        4.6251476152        3.0078724426
 Ti         6.9439892180        6.9257394652        4.5156979992
 Ti         9.2621794079        4.6059836597        3.0121911920
 Ti        11.5822206647        6.9262394708        4.5154476811
 Ti        -0.0105745529        9.2447954532        3.0087654179
 Ti         2.3027404536       11.5652542601        4.5149399349
 Ti         4.6239043526        9.2439963988        3.0121664462
 Ti         6.9436241169       11.5641624144        4.5154551631
 Ti         9.2433660362        9.2252123708        3.0080307300
 Ti        11.5726355563       11.5547537754        4.5148897485
 Ti        -0.0116566673       -0.0300157139        6.0210515781
 Ti         2.3082436528        2.2898719043        7.5193554414
 Ti         4.6234939852       -0.0320475048        6.0218556409
 Ti         6.9362147894        2.2931670158        7.5266743124
 Ti         9.2635360869       -0.0286289846        6.0217470275
 Ti        11.5809378539        2.2885588204        7.5266171668
 Ti        -0.0132139885        4.6051435418        6.0217056089
 Ti         2.3118651407        6.9184984000        7.5267116939
 Ti         4.6439326953        4.6249148263        6.0228969784
 Ti         6.9431792529        6.9251761149        7.4988196703
 Ti         9.2626071354        4.6057287973        6.0178249798
 Ti        11.5757708506        6.9328594640        7.5267984162
 Ti        -0.0100691055        9.2446573695        6.0217493385
 Ti         2.3067123671       11.5630159164        7.5266763740
 Ti         4.6240478826        9.2441787316        6.0175351029
 Ti         6.9514999380       11.5579046012        7.5265427031
 Ti         9.2438025476        9.2252275613        6.0228903970
 Ti        11.5791134303       11.5610257279        7.5197301741
 Ti        -0.0116124086       -0.0301635921        9.0303508951
 Ti         2.3073351985        2.2893025237       10.5335553684
 Ti         4.6283636383       -0.0326670631        9.0297544865
 Ti         6.9419394517        2.2882025663       10.5360419114
 Ti         9.2588587214       -0.0279712466        9.0298451578
 Ti        11.5799159441        2.2889949665       10.5347093744
 Ti        -0.0137095578        4.6097647305        9.0296015549
 Ti         2.3061917405        6.9242268810       10.5357299607
 Ti         4.6277990153        4.6096703572        9.0335282982
 Ti         6.9427271601        6.9252616166       10.5231924671
 Ti         9.2616249002        4.6063819448        9.0282531495
 Ti        11.5805184750        6.9266979934       10.5359271459
 Ti        -0.0094696917        9.2402577625        9.0297222427
 Ti         2.3064054064       11.5620299754       10.5347431856
 Ti         4.6252145945        9.2437430364        9.0280071125
 Ti         6.9442016965       11.5628072733       10.5359250388
 Ti         9.2576307634        9.2391013191        9.0336449479
 Ti        11.5789046721       11.5610040269       10.5332395281
 Ti        -0.0123165289       -0.0301349102       12.0391959832
 Ti         2.3078486775        2.2898055774       13.5456148306
 Ti         4.6215473673       -0.0289935680       12.0397861288
 Ti         6.9423073594        2.2881597917       13.5437373226
 Ti         9.2644716893       -0.0312840466       12.0396346426
 Ti        11.5802977638        2.2889393858       13.5438792404
 Ti        -0.0108290209        4.6040539381       12.0395663452
 Ti         2.3064573989        6.9243786558       13.5438658605
 Ti         4.6333913587        4.6146167562       12.0399290991
 Ti         6.9430289450        6.9256251195       13.5565464493
 Ti         9.2612073872        4.6070323407       12.0394415161
 Ti        11.5807415373        6.9267061090       13.5438270523
 Ti        -0.0132144672        9.2462521282       12.0396929198
 Ti         2.3067284345       11.5622516689       13.5439513858
 Ti         4.6246002262        9.2433528561       12.0392750938
 Ti         6.9445393619       11.5628435406       13.5436940750
 Ti         9.2530555606        9.2352364956       12.0398239899
 Ti        11.5792258231       11.5612536157       13.5454662699
  O         1.4063641776        1.3847315156       -0.0006567762
  O         3.2034077115        3.1826951504       -0.0054847692
  O         0.8876635848        3.7088672478        1.5044090403
  O         3.7286584256        0.8679374225        1.5048906552
  O         6.0481195185        1.3821238405       -0.0029992384
  O         7.8443814182        3.1860796784       -0.0000476523
  O         5.5135539964        3.6858303940        1.4905805170
  O         8.3631878339        0.8702251490        1.5056550076
  O        10.6829822464        1.3885238278        0.0002912956
  O        12.4822161523        3.1884306656        0.0003756031
  O        10.1674144717        3.7027971503        1.5044095411
  O        12.9995255791        0.8708623639        1.5038712976
  O         1.4039178369        6.0277089487       -0.0037175433
  O         3.2067796325        7.8244340984       -0.0000880303
  O         0.8897318052        8.3430545748        1.5055709111
  O         3.7060197341        5.4945746354        1.4907792923
  O         6.0393672862        6.0207466996       -0.0223684401
  O         7.8497061695        7.8301575163       -0.0224993792
  O         5.5185946432        8.3511816063        1.4993452820
  O         8.3706592015        5.4994339186        1.4991508158
  O        10.6847203616        6.0260079306       -0.0002090838
  O        12.4882511632        7.8225149582       -0.0030715903
  O        10.1838807144        8.3555139108        1.4901971460
  O        13.0009418019        5.5077522288        1.5056485172
  O         1.4088891158       10.6623503638        0.0003897493
  O         3.2080561118       12.4623367978        0.0003959643
  O         0.8903132492       12.9798054359        1.5043249341
  O         3.7226339112       10.1483996215        1.5039724518
  O         6.0468769784       10.6644654726       -0.0000485886
  O         7.8426424125       12.4687164101       -0.0030936299
  O         5.5271316446       12.9806791315        1.5057812109
  O         8.3754620165       10.1638018007        1.4904767328
  O        10.6872225852       10.6674360939       -0.0050568086
  O        12.4849551297       12.4646616621       -0.0006262589
  O        10.1615403262       12.9828421688        1.5046146943
  O        13.0024971671       10.1415399877        1.5045954750
  O         1.4029679331        1.3846479421        3.0077567039
  O         3.1979300262        3.1795367489        3.0090274103
  O         0.8861156976        3.7081486507        4.5153967943
  O         3.7271475287        0.8671975964        4.5152876405
  O         6.0445535636        1.3875714152        3.0129007126
  O         7.8415822890        3.1888116085        3.0070122077
  O         5.5285028969        3.7105494418        4.5156738549
  O         8.3632384358        0.8735492204        4.5154030912
  O        10.6822972321        1.3878288176        3.0101064096
  O        12.4825331051        3.1878419700        3.0100635689
  O        10.1692234503        3.7009514450        4.5155076832
  O        12.9990604066        0.8703500815        4.5152658260
  O         1.4067393805        6.0255647181        3.0128571910
  O         3.2075537446        7.8231135500        3.0067177748
  O         0.8930202479        8.3441610291        4.5153723357
  O         3.7302184106        5.5095759444        4.5154758681
  O         6.0062194626        5.9854830374        2.9136478510
  O         7.8830822444        7.8639598157        2.9128989734
  O         5.5106562431        8.3588062825        4.5155218888
  O         8.3786586350        5.4923855706        4.5153694692
  O        10.6813774207        6.0279987153        3.0067380681
  O        12.4822869687        7.8254486621        3.0131810209
  O        10.1580258632        8.3404042119        4.5155131233
  O        12.9960026810        5.5064700476        4.5155107168
  O         1.4063606456       10.6634034564        3.0099789124
  O         3.2065849789       12.4634229027        3.0102486865
  O         0.8893952632       12.9801534000        4.5151612469
  O         3.7193419448       10.1496947667        4.5156532926
  O         6.0468366823       10.6627149556        3.0069405301
  O         7.8447522615       12.4632598244        3.0128835616
  O         5.5256326123       12.9771324957        4.5153454788
  O         8.3593557413       10.1388755530        4.5155792284
  O        10.6904967540       10.6708467042        3.0090957700
  O        12.4853859908       12.4661649991        3.0078873888
  O        10.1616190229       12.9834453702        4.5151453423
  O        13.0028031415       10.1424000619        4.5152127495
  O         1.4037157353        1.3841833110        6.0229019100
  O         3.1986558330        3.1790615019        6.0218424459
  O         0.8882676496        3.7091993956        7.5259381667
  O         3.7291991107        0.8679213359        7.5257658236
  O         6.0453596399        1.3872576856        6.0180329315
  O         7.8419687347        3.1889173117        6.0240108580
  O         5.5135715997        3.6858424905        7.5403278509
  O         8.3638695022        0.8706343465        7.5247321604
  O        10.6829652741        1.3876304467        6.0205156247
  O        12.4829291380        3.1878578254        6.0206100467
  O        10.1676078527        3.7028901212        7.5264152435
  O        13.0002557464        0.8712701923        7.5262155292
  O         1.4076894477        6.0253407711        6.0178144749
  O         3.2082156990        7.8231430471        6.0239851748
  O         0.8900880819        8.3433642538        7.5247465782
  O         3.7058982069        5.4942782962        7.5409007660
  O         6.0058600508        5.9858838884        6.1177575964
  O         7.8835789712        7.8631332737        6.1181783332
  O         5.5197204105        8.3519291693        7.5321741883
  O         8.3707925232        5.4993707014        7.5319220136
  O        10.6817007227        6.0280635134        6.0243787651
  O        12.4826324612        7.8255848619        6.0177232371
  O        10.1837515031        8.3557366924        7.5407829941
  O        13.0013640518        5.5080485488        7.5248009843
  O         1.4071540547       10.6632743176        6.0208636716
  O         3.2069905870       12.4635700488        6.0204708036
  O         0.8906031532       12.9798842605        7.5261370879
  O         3.7236811690       10.1491191909        7.5266783783
  O         6.0472358318       10.6628089989        6.0237234254
  O         7.8453271411       12.4631497572        6.0179422359
  O         5.5274360673       12.9808382980        7.5248510149
  O         8.3751284112       10.1635771750        7.5403218761
  O        10.6905116508       10.6707893642        6.0215394362
  O        12.4856169637       12.4661572666        6.0223313819
  O        10.1621390746       12.9831623157        7.5257696374
  O        13.0030096164       10.1419093535        7.5258429854
  O         1.4055281926        1.3852746767        9.0308205743
  O         3.2035460544        3.1822645285        9.0356576463
  O         0.8864186318        3.7081612918       10.5352500670
  O         3.7271811575        0.8669507125       10.5356268120
  O         6.0480741074        1.3822199915        9.0338453378
  O         7.8439493941        3.1864040094        9.0308009830
  O         5.5231036540        3.6997342065       10.5391652005
  O         8.3646601366        0.8723756196       10.5355960710
  O        10.6825362109        1.3887849669        9.0300993429
  O        12.4819179842        3.1885470782        9.0300281314
  O        10.1658868887        3.7041360354       10.5358282765
  O        12.9987803905        0.8708188013       10.5351698146
  O         1.4030819609        6.0282268619        9.0329746005
  O         3.2063053624        7.8247222227        9.0306500435
  O         0.8919237373        8.3452153969       10.5355698542
  O         3.7188368263        5.5034664276       10.5383600183
  O         6.0396177470        6.0202233155        9.0540481287
  O         7.8497217983        7.8299959828        9.0537474366
  O         5.5212402454        8.3488264057       10.5371082766
  O         8.3676711878        5.5021108659       10.5373336572
  O        10.6843435912        6.0262825300        9.0308068796
  O        12.4881563805        7.8226907904        9.0338341808
  O        10.1700523751        8.3466919903       10.5388620365
  O        12.9977352685        5.5054107934       10.5354590964
  O         1.4084621631       10.6625703276        9.0300267014
  O         3.2077654544       12.4624243724        9.0302957759
  O         0.8899257916       12.9797874093       10.5352914621
  O         3.7228872524       10.1466857852       10.5358811620
  O         6.0463125706       10.6648927160        9.0309983188
  O         7.8425098300       12.4687791481        9.0333563796
  O         5.5245501530       12.9783168190       10.5355111482
  O         8.3657366512       10.1504641019       10.5388526928
  O        10.6871151469       10.6675571418        9.0353962523
  O        12.4846003334       12.4649427933        9.0309788823
  O        10.1617727108       12.9835947599       10.5354633784
  O        13.0028988502       10.1424567724       10.5354461100
  O         1.4046531016        1.3860466953       12.0395645036
  O         3.2037389929        3.1851224491       12.0398990261
  O         0.8868137996        3.7079683308       13.5441786486
  O         3.7279738924        0.8670578706       13.5438550372
  O         6.0464038786        1.3845514983       12.0398039390
  O         7.8443058372        3.1869602839       12.0398780921
  O         5.5237107602        3.6996472605       13.5409217043
  O         8.3651483942        0.8725255475       13.5439925227
  O        10.6822258311        1.3888763587       12.0397780395
  O        12.4815189233        3.1881043998       12.0397477030
  O        10.1662140538        3.7041138822       13.5439421141
  O        12.9996302182        0.8710643608       13.5442954265
  O         1.4037800218        6.0274220143       12.0399066736
  O         3.2063240262        7.8252549974       12.0397211091
  O         0.8923976957        8.3452797884       13.5439997670
  O         3.7205538957        5.5038602032       13.5417638468
  O         6.0402765780        6.0221690824       12.0401505603
  O         7.8479093213        7.8287072836       12.0400304804
  O         5.5220772606        8.3491835578       13.5428780648
  O         8.3679440187        5.5021098060       13.5428237924
  O        10.6831486215        6.0257868966       12.0398886568
  O        12.4857664597        7.8235498448       12.0397586545
  O        10.1702812965        8.3466043222       13.5409017506
  O        12.9984788024        5.5055976346       13.5442341095
  O         1.4074230071       10.6633222816       12.0398523015
  O         3.2067623232       12.4624694577       12.0397774416
  O         0.8903885507       12.9797360865       13.5439461751
  O         3.7238278557       10.1470244612       13.5442473992
  O         6.0444931788       10.6645572827       12.0397283824
  O         7.8426351185       12.4665842231       12.0398971562
  O         5.5249377960       12.9781901072       13.5442369576
  O         8.3662814729       10.1505972601       13.5408122012
  O        10.6848754645       10.6659076185       12.0396342522
  O        12.4840300837       12.4649307643       12.0396909864
  O        10.1623889562       12.9837021853       13.5440223016
  O        13.0033117391       10.1423753587       13.5439613714
&END COORD
  &KIND H
    BASIS_SET   DZVP-MOLOPT-SR-GTH
    POTENTIAL GTH-PBE-q1
  &END KIND
  &KIND Ti
    BASIS_SET  DZVP-MOLOPT-SR-GTH
    POTENTIAL GTH-PBE-q12
   &DFT_PLUS_U ON
     L 2
     U_MINUS_J [eV] 4.2
     U_RAMPING [eV] 0
   &END DFT_PLUS_U
  &END KIND
  &KIND O
    BASIS_SET  DZVP-MOLOPT-SR-GTH
    POTENTIAL GTH-PBE-q6
  &END KIND
  &KIND C
    BASIS_SET  DZVP-MOLOPT-SR-GTH
    POTENTIAL GTH-PBE-q4
  &END KIND
 &END SUBSYS
&END FORCE_EVAL
