&GLOBAL
  RUN_TYPE  ENERGY 
  PRINT_LEVEL MEDIUM
&END GLOBAL

&MOTION
 &GEO_OPT
   MAX_ITER  1000
   MAX_DR    1.E-3
   RMS_DR    3.E-4
   MAX_FORCE 1.E-4
   RMS_FORCE 3.E-5
   OPTIMIZER BFGS
 &END GEO_OPT
&END MOTION

&MULTIPLE_FORCE_EVALS
  FORCE_EVAL_ORDER 2 3
  MULTIPLE_SUBSYS F
&END MULTIPLE_FORCE_EVALS
&FORCE_EVAL
  METHOD MIXED
 &MIXED
   MIXING_TYPE MIXED_CDFT
   NGROUPS 1 
  &MIXED_CDFT
    LAMBDA 1.0   
    COUPLING 1   
    LOWDIN T
  &END MIXED_CDFT
 &END MIXED
 &SUBSYS
  &CELL
    ABC 12.9938   11.8360   25.0000
  &END CELL
 &COORD
 Ti         1.6693361182        1.4332161106        7.7833567641
 Ti         4.9179377450        1.4332006863       17.2167357471
 Ti         4.9178407307        1.4331704161       10.6224545968
 Ti         1.6693753012        1.4331970693       14.3776681865
 Ti         4.9177408959       -0.0462480721        7.3046068610
 Ti         1.6693795406       -0.0462579167       17.6955834207
 Ti         1.6693976789       -0.0462662379       11.0053193971
 Ti         4.9177588250       -0.0462706329       13.9947995489
 Ti         8.1662381890        1.4332024259        7.7833558697
 Ti        11.4148479805        1.4332087001       17.2167438852
 Ti        11.4147320707        1.4331692018       10.6224506934
 Ti         8.1662733372        1.4332122089       14.3776807921
 Ti        11.4146451294       -0.0462842132        7.3046089647
 Ti         8.1663122399       -0.0462642852       17.6955695982
 Ti         8.1662823628       -0.0462592700       11.0053316852
 Ti        11.4146736305       -0.0462806228       13.9947930860
 Ti         1.6690678488        4.3922019847        7.7833462809
 Ti         4.9179313481        4.3922090297       17.2167302297
 Ti         4.9177961121        4.3922296440       10.6224299312
 Ti         1.6693902972        4.3922017925       14.3776569186
 Ti         4.9178447579        2.9127395594        7.3045487569
 Ti         1.6693921552        2.9127468553       17.6955698243
 Ti         1.6693654473        2.9127112169       11.0053250609
 Ti         4.9177553377        2.9127255410       13.9948005869
 Ti         8.1659733197        4.3922148264        7.7833349981
 Ti        11.4148390616        4.3922042867       17.2167432403
 Ti        11.4146915412        4.3922289025       10.6224261157
 Ti         8.1662879161        4.3922083017       14.3776647867
 Ti        11.4147396752        2.9127110987        7.3045577992
 Ti         8.1663142613        2.9127514630       17.6955515673
 Ti         8.1662498243        2.9127137169       11.0053210238
 Ti        11.4146743798        2.9127234505       13.9948064666
 Ti         1.6693227077        7.3512182654        7.7833643720
 Ti         4.9179044959        7.3512145325       17.2167301277
 Ti         4.9178014486        7.3512161798       10.6224584498
 Ti         1.6693821479        7.3512092903       14.3776565684
 Ti         4.9177166337        5.8717584361        7.3045498467
 Ti         1.6693787098        5.8717360752       17.6955774290
 Ti         1.6693621072        5.8717145548       11.0053231327
 Ti         4.9177717085        5.8717262169       13.9947804592
 Ti         8.1662269085        7.3511938194        7.7833546567
 Ti        11.4148118584        7.3512148141       17.2167500115
 Ti        11.4146988832        7.3512089436       10.6224518804
 Ti         8.1662794381        7.3512202666       14.3776730456
 Ti        11.4146312936        5.8717287007        7.3045574824
 Ti         8.1663053659        5.8717242131       17.6955648792
 Ti         8.1662419831        5.8717150682       11.0053414797
 Ti        11.4146850395        5.8717282531       13.9947841096
 Ti         1.6691181831       10.3102104613        7.7833683437
 Ti         4.9179180866       10.3102127705       17.2167247128
 Ti         4.9177844647       10.3101492099       10.6224693513
 Ti         1.6693683416       10.3102137456       14.3776583702
 Ti         4.9179000416        8.8307351137        7.3045857552
 Ti         1.6693720862        8.8307495837       17.6955901500
 Ti         1.6693728906        8.8307212770       11.0053338604
 Ti         4.9177671896        8.8307217202       13.9947915532
 Ti         8.1660297145       10.3102242680        7.7833688303
 Ti        11.4148298753       10.3102148481       17.2167415681
 Ti        11.4146917437       10.3101566969       10.6224630658
 Ti         8.1662700348       10.3102175569       14.3776718044
 Ti        11.4147909148        8.8307089972        7.3045812205
 Ti         8.1663067353        8.8307364162       17.6955720937
 Ti         8.1662714116        8.8307199252       11.0053573253
 Ti        11.4146878312        8.8307231282       13.9947935359
  O         1.6695624467        1.4330116881        9.5877016648
  O         1.6696250957        1.4330066536       16.2034012781
  O         4.9179226136        1.4330407703       15.4123834360
  O         4.9174451601        1.4330493228        8.7967736264
  O         4.9176676895        1.4331444172        6.2354669620
  O         4.9180147682        1.4331009260       12.8438993529
  O         1.6695926274        1.4331204307       18.7647184772
  O         1.6693542286        1.4331008994       12.1562585139
  O         0.4485134511       -0.0465028199        7.4294163394
  O         3.6400055931       -0.0464789125       10.8207288350
  O         2.8893063885       -0.0463216589        7.4289416015
  O         6.1958391178       -0.0464523680       10.8202346243
  O         6.1385704509       -0.0463870932       17.5708382127
  O         2.9474964453       -0.0464400190       14.1795729037
  O         3.6977613129       -0.0464028084       17.5709811986
  O         0.3916195069       -0.0464633640       14.1796903854
  O         8.1664933577        1.4330160219        9.5877103286
  O         8.1664907181        1.4330156988       16.2034201782
  O        11.4148582940        1.4330269107       15.4123764903
  O        11.4143557461        1.4330468611        8.7967702064
  O        11.4145804888        1.4330780330        6.2354732618
  O        11.4149080707        1.4331078737       12.8438927974
  O         8.1664780144        1.4331041390       18.7647047474
  O         8.1662552443        1.4331119941       12.1562608469
  O         6.9454170791       -0.0464548800        7.4294423971
  O        10.1369136558       -0.0464776362       10.8207767165
  O         9.3862410066       -0.0463699232        7.4289777945
  O        12.6927522992       -0.0464565747       10.8202581384
  O        12.6354666565       -0.0463707187       17.5707821775
  O         9.4443936507       -0.0464394886       14.1795802147
  O        10.1946869484       -0.0464166367       17.5708920476
  O         6.8885103619       -0.0464607965       14.1797064878
  O         1.6695172500        4.3919875237        9.5877253717
  O         1.6695929217        4.3920050053       16.2033813937
  O         4.9179702716        4.3920371271       15.4123705748
  O         4.9174464956        4.3920043843        8.7967267805
  O         4.9175177056        4.3921662186        6.2354276445
  O         4.9179696155        4.3920908367       12.8438758904
  O         1.6695954105        4.3921222613       18.7647106371
  O         1.6693976259        4.3920993103       12.1562421033
  O         0.4482178545        2.9126140122        7.4294077661
  O         3.6400081714        2.9125588620       10.8206203897
  O         2.8890521728        2.9125593176        7.4289193298
  O         6.1958228052        2.9125618300       10.8203205177
  O         6.1385520753        2.9125736284       17.5708418027
  O         2.9474944797        2.9125598285       14.1796028971
  O         3.6977475627        2.9126242057       17.5709678868
  O         0.3916319306        2.9125389182       14.1796794049
  O         8.1664297328        4.3919934536        9.5877064226
  O         8.1664582316        4.3920056209       16.2033869984
  O        11.4148923984        4.3920330514       15.4123762421
  O        11.4143434460        4.3920186013        8.7967316440
  O        11.4144572481        4.3920957191        6.2354510114
  O        11.4148650241        4.3920979721       12.8438782399
  O         8.1664771202        4.3921068458       18.7647053155
  O         8.1663048245        4.3921007811       12.1562471994
  O         6.9451316825        2.9126566604        7.4294344510
  O        10.1369178270        2.9125570882       10.8206636116
  O         9.3859497866        2.9125262464        7.4289596441
  O        12.6927373752        2.9125538905       10.8203330086
  O        12.6354536511        2.9125878734       17.5707960171
  O         9.4443940617        2.9125534023       14.1796157304
  O        10.1946480029        2.9126083223       17.5708781778
  O         6.8885221693        2.9125447661       14.1796919528
  O         1.6695404711        7.3509975753        9.5877332176
  O         1.6696022251        7.3510160299       16.2033898114
  O         4.9179585064        7.3510069301       15.4123670563
  O         4.9174181300        7.3509990454        8.7967471008
  O         4.9176238125        7.3511571093        6.2354272594
  O         4.9179807404        7.3511044496       12.8438563467
  O         1.6695961436        7.3511227907       18.7647142282
  O         1.6693906564        7.3510982010       12.1562521245
  O         0.4483796539        5.8715564321        7.4293954281
  O         3.6399929341        5.8715960288       10.8205825673
  O         2.8891818665        5.8716213585        7.4289910078
  O         6.1958354910        5.8715651913       10.8203457636
  O         6.1385432282        5.8715789261       17.5708600747
  O         2.9474978832        5.8715464287       14.1796264081
  O         3.6977402445        5.8716184593       17.5709409454
  O         0.3916318364        5.8715720925       14.1796465975
  O         8.1664541729        7.3509886705        9.5877241402
  O         8.1664638033        7.3510050018       16.2034046612
  O        11.4148828198        7.3510107231       15.4123757129
  O        11.4143240645        7.3510313326        8.7967451035
  O        11.4145673728        7.3510801464        6.2354288389
  O        11.4148739640        7.3511102950       12.8438562491
  O         8.1664733142        7.3511029369       18.7647060333
  O         8.1662896471        7.3511006770       12.1562603405
  O         6.9452887424        5.8716026892        7.4293814367
  O        10.1368919927        5.8715924303       10.8206241611
  O         9.3860950701        5.8715834594        7.4290051151
  O        12.6927335647        5.8715566649       10.8203530163
  O        12.6354330692        5.8715893575       17.5708109282
  O         9.4443955115        5.8715425237       14.1796362334
  O        10.1946563408        5.8716093055       17.5708549067
  O         6.8885260324        5.8715735045       14.1796499637
  O         1.6696413199       10.3100289745        9.5877434492
  O         1.6696278389       10.3100203801       16.2033900731
  O         4.9179260044       10.3100240511       15.4123669339
  O         4.9173520464       10.3099485939        8.7967535109
  O         4.9177717380       10.3101887810        6.2355057742
  O         4.9179997659       10.3100966825       12.8438730938
  O         1.6695976823       10.3101213152       18.7647359043
  O         1.6693561828       10.3101038235       12.1562505236
  O         0.4483387155        8.8306011101        7.4294105738
  O         3.6399597016        8.8305429866       10.8206740825
  O         2.8891463412        8.8305799042        7.4288847539
  O         6.1958800318        8.8305651109       10.8202696479
  O         6.1385551432        8.8306169560       17.5708435069
  O         2.9475017340        8.8305527502       14.1796180986
  O         3.6977638295        8.8305878288       17.5709638757
  O         0.3916271813        8.8305685064       14.1796679868
  O         8.1665585164       10.3100292810        9.5877306812
  O         8.1664921526       10.3100211667       16.2034063775
  O        11.4148553792       10.3100222353       15.4123692909
  O        11.4142837285       10.3099708491        8.7967501032
  O        11.4146908522       10.3101125803        6.2355007055
  O        11.4148983670       10.3100966843       12.8438598001
  O         8.1664789469       10.3100988175       18.7647186561
  O         8.1662534138       10.3101189095       12.1562577747
  O         6.9452667908        8.8306471260        7.4294368098
  O        10.1368695679        8.8305472802       10.8207244354
  O         9.3860502772        8.8305280942        7.4289295462
  O        12.6927710347        8.8305554207       10.8202778165
  O        12.6354524247        8.8306244999       17.5707913524
  O         9.4444044101        8.8305526354       14.1796307053
  O        10.1946770753        8.8305832190       17.5708659239
  O         6.8885168100        8.8305689074       14.1796779536
&END COORD
  &KIND H
    BASIS_SET   DZVP-MOLOPT-SR-GTH
    POTENTIAL GTH-PBE-q1
  &END KIND
  &KIND Ti
    BASIS_SET  DZVP-MOLOPT-SR-GTH
    POTENTIAL GTH-PBE-q12
   &DFT_PLUS_U ON
     L 2
     U_MINUS_J [eV] 4.2
     U_RAMPING [eV] 0
   &END DFT_PLUS_U
  &END KIND
  &KIND O
    BASIS_SET  DZVP-MOLOPT-SR-GTH
    POTENTIAL GTH-PBE-q6
  &END KIND
  &KIND C
    BASIS_SET  DZVP-MOLOPT-SR-GTH
    POTENTIAL GTH-PBE-q4
  &END KIND
 &END SUBSYS
&END FORCE_EVAL

&FORCE_EVAL
 &DFT
   BASIS_SET_FILE_NAME  BASIS_SET
   POTENTIAL_FILE_NAME  GTH_POTENTIALS
   WFN_RESTART_FILE_NAME PROJECT-40-RESTART.wfn
UKS T
  MULTIPLICITY 2
  CHARGE -1
  PLUS_U_METHOD LOWDIN
 &MGRID
   NGRIDS 5
  &RS_GRID
  &END RS_GRID
   CUTOFF 500
   COMMENSURATE
  &END MGRID
  &QS
    EXTRAPOLATION ASPC
    EXTRAPOLATION_ORDER 3
    EPS_DEFAULT 1.0E-12
   &CDFT 
     TYPE_OF_CONSTRAINT Hirshfeld 
     ATOMIC_CHARGES T 
     STRENGTH -0.027810367311  
     TARGET 1 
    &ATOM_GROUP 
      ATOMS 40  
      COEFF 1 
      CONSTRAINT_TYPE  MAGNETIZATION  
    &END ATOM_GROUP
    &OUTER_SCF 
      TYPE CDFT_CONSTRAINT 
      EPS_SCF 1E-3 
      OPTIMIZER SECANT
      STEP_SIZE 0.05 
    &END OUTER_SCF
    &HIRSHFELD_CONSTRAINT
      SHAPE_FUNCTION DENSITY 
    &END HIRSHFELD_CONSTRAINT
   &END CDFT
  &END QS
  &SCF
    EPS_SCF 5.0E-7
    MAX_SCF 100
    SCF_GUESS RESTART
   &OUTER_SCF
     MAX_SCF 20
     OPTIMIZER DIIS
     STEP_SIZE 0.15
     EPS_SCF 5.0E-7
   &END OUTER_SCF
   &OT T
    MINIMIZER CG
    ALGORITHM IRAC
    PRECONDITIONER FULL_ALL
    ENERGY_GAP 0.001
   &END OT
  &END SCF
  &PRINT
   &E_DENSITY_CUBE
     STRIDE 3 
   &END E_DENSITY_CUBE
  &END PRINT
  &XC
   &XC_FUNCTIONAL PBE
   &END XC_FUNCTIONAL
   &VDW_POTENTIAL
     POTENTIAL_TYPE PAIR_POTENTIAL
    &PAIR_POTENTIAL
      TYPE DFTD3
      PARAMETER_FILE_NAME dftd3.dat
      REFERENCE_FUNCTIONAL PBE
    &END PAIR_POTENTIAL
   &END VDW_POTENTIAL
   &XC_GRID
     XC_SMOOTH_RHO NN10
     XC_DERIV SPLINE2_smooth
   &END XC_GRID
  &END XC
 &END DFT
&END FORCE_EVAL

&FORCE_EVAL
 &DFT
   BASIS_SET_FILE_NAME  BASIS_SET
   POTENTIAL_FILE_NAME  GTH_POTENTIALS
   WFN_RESTART_FILE_NAME PROJECT-44-RESTART.wfn
UKS T
  MULTIPLICITY 2
  CHARGE -1
  PLUS_U_METHOD LOWDIN
 &MGRID
   NGRIDS 5
  &RS_GRID
  &END RS_GRID
   CUTOFF 500
   COMMENSURATE
  &END MGRID
  &QS
    EXTRAPOLATION ASPC
    EXTRAPOLATION_ORDER 3
    EPS_DEFAULT 1.0E-12
   &CDFT 
     TYPE_OF_CONSTRAINT Hirshfeld 
     ATOMIC_CHARGES T 
     STRENGTH -0.025823648277 
     TARGET 1 
    &ATOM_GROUP
      ATOMS 44  
      COEFF 1 
      CONSTRAINT_TYPE  MAGNETIZATION  
    &END ATOM_GROUP
    &OUTER_SCF 
      TYPE CDFT_CONSTRAINT
      EPS_SCF 1E-3 
      OPTIMIZER SECANT
      STEP_SIZE 0.05
    &END OUTER_SCF
    &HIRSHFELD_CONSTRAINT
      SHAPE_FUNCTION DENSITY
    &END HIRSHFELD_CONSTRAINT
   &END CDFT
  &END QS
  &SCF
    EPS_SCF 5.0E-7
    MAX_SCF 100
    SCF_GUESS RESTART
   &OUTER_SCF
     MAX_SCF 20
     OPTIMIZER DIIS
     STEP_SIZE 0.15
     EPS_SCF 5.0E-7
   &END OUTER_SCF
   &OT T
     MINIMIZER CG
     ALGORITHM IRAC
     PRECONDITIONER FULL_ALL
     ENERGY_GAP 0.001
   &END OT
  &END SCF
  &PRINT
   &E_DENSITY_CUBE
     STRIDE 3 
   &END E_DENSITY_CUBE
  &END PRINT
  &XC
   &XC_FUNCTIONAL PBE
   &END XC_FUNCTIONAL
   &VDW_POTENTIAL
     POTENTIAL_TYPE PAIR_POTENTIAL
    &PAIR_POTENTIAL
      TYPE DFTD3
      PARAMETER_FILE_NAME dftd3.dat
      REFERENCE_FUNCTIONAL PBE
    &END PAIR_POTENTIAL
   &END VDW_POTENTIAL
   &XC_GRID
     XC_SMOOTH_RHO NN10
     XC_DERIV SPLINE2_smooth
   &END XC_GRID
  &END XC
 &END DFT
&END FORCE_EVAL
