&GLOBAL
  RUN_TYPE  GEO_OPT 
  PRINT_LEVEL MEDIUM
&END GLOBAL

&MOTION
 &GEO_OPT
   MAX_ITER  1000
   MAX_DR    1.E-3
   RMS_DR    3.E-4
   MAX_FORCE 1.E-4
   RMS_FORCE 3.E-5
   OPTIMIZER BFGS
 &END GEO_OPT
 &CONSTRAINT
  &FIXED_ATOMS
    COMPONENTS_TO_FIX  XYZ
    LIST 1..192
  &END FIXED_ATOMS
 &END CONSTRAINT
&END MOTION

&FORCE_EVAL
 &DFT
   BASIS_SET_FILE_NAME  BASIS_SET 
   POTENTIAL_FILE_NAME  GTH_POTENTIALS
   WFN_RESTART_FILE_NAME PROJECT-24-RESTART.wfn
UKS T
  MULTIPLICITY 2
  CHARGE -1
  PLUS_U_METHOD LOWDIN
 &MGRID
   NGRIDS 5
  &RS_GRID
  &END RS_GRID
   CUTOFF 500
   COMMENSURATE
  &END MGRID
  &QS
    EXTRAPOLATION ASPC
    EXTRAPOLATION_ORDER 3
    EPS_DEFAULT 1.0E-12
   &CDFT 
     TYPE_OF_CONSTRAINT Hirshfeld 
     ATOMIC_CHARGES T 
     STRENGTH -0.027810367311  
     TARGET 1 
    &ATOM_GROUP 
      ATOMS 40  
      COEFF 1 
      CONSTRAINT_TYPE  MAGNETIZATION  
     &END ATOM_GROUP
     &OUTER_SCF 
       TYPE CDFT_CONSTRAINT 
       EPS_SCF 1E-3 
       OPTIMIZER SECANT
       STEP_SIZE 0.05 
     &END OUTER_SCF
     &HIRSHFELD_CONSTRAINT
       SHAPE_FUNCTION DENSITY 
     &END HIRSHFELD_CONSTRAINT
    &END CDFT
  &END QS
  &SCF
    EPS_SCF 5.0E-7
    MAX_SCF 100
    SCF_GUESS RESTART 
   &OUTER_SCF
     MAX_SCF 20
     OPTIMIZER DIIS
     STEP_SIZE 0.15
     EPS_SCF 5.0E-7
   &END OUTER_SCF
   &OT T 
    MINIMIZER CG
    ALGORITHM IRAC
    PRECONDITIONER FULL_ALL
    ENERGY_GAP 0.001
   &END OT
  &END SCF
  &PRINT
   &E_DENSITY_CUBE
     STRIDE 3 
   &END E_DENSITY_CUBE
  &END PRINT
  &XC
   &XC_FUNCTIONAL PBE
   &END XC_FUNCTIONAL
   &VDW_POTENTIAL
     POTENTIAL_TYPE PAIR_POTENTIAL
    &PAIR_POTENTIAL
      TYPE DFTD3
      PARAMETER_FILE_NAME dftd3.dat
      REFERENCE_FUNCTIONAL PBE
    &END PAIR_POTENTIAL
   &END VDW_POTENTIAL
   &XC_GRID
     XC_SMOOTH_RHO NN10 
     XC_DERIV SPLINE2_smooth
   &END XC_GRID
  &END XC
 &END DFT
 &SUBSYS
  &CELL
   ABC 12.9938   11.8360   25.0000
  &END CELL
&COORD
 Ti         1.6227818331        1.4798410800        7.8067024087
 Ti         4.8726745127        1.4674714200       17.1918129287
 Ti         4.8726747128        1.4771585523       10.6815806326
 Ti         1.6217992185        1.4808364765       14.3776527577
 Ti         4.8726749541        0.0091595701        7.3425855493
 Ti         1.6262370015       -0.0004031915       17.6908377729
 Ti         1.6270516478       -0.0021637367       11.0154021835
 Ti         4.8726748253        0.0254211051       13.9522076625
 Ti         8.1225680561        1.4798410427        7.8067023492
 Ti        11.3695745288        1.4797870904       17.1938024160
 Ti        11.3695748711        1.4781286280       10.6302652198
 Ti         8.1235505914        1.4808364397       14.3776527119
 Ti        11.3695750195        0.0000109274        7.3135376643
 Ti         8.1191119827       -0.0004032887       17.6908376591
 Ti         8.1182981953       -0.0021637500       11.0154021458
 Ti        11.3695748589       -0.0008883437       13.9789135694
 Ti         1.6227819317        4.4381590459        7.8067024203
 Ti         4.8726745668        4.4505286553       17.1918129308
 Ti         4.8726749715        4.4408416623       10.6815806893
 Ti         1.6217991182        4.4371637838       14.3776527824
 Ti         4.8726749202        2.9589999392        7.3609902740
 Ti         1.6289702950        2.9590000523       17.6871272506
 Ti         1.6233919828        2.9590001091       11.0236069196
 Ti         4.8726749232        2.9590001493       14.0362962621
 Ti         8.1225679674        4.4381590366        7.8067023628
 Ti        11.3695745452        4.4382130876       17.1938024340
 Ti        11.3695749550        4.4398716211       10.6302653007
 Ti         8.1235503311        4.4371637057       14.3776526974
 Ti        11.3695749712        2.9590001750        7.3148688168
 Ti         8.1163787651        2.9590000491       17.6871271572
 Ti         8.1219577059        2.9590000760       11.0236068628
 Ti        11.3695748399        2.9590000700       13.9773185406
 Ti         1.6219030106        7.3977982583        7.8027312001
 Ti         4.8726744086        7.4036089415       17.1881523410
 Ti         4.8726749617        7.4007761351       10.6380087857
 Ti         1.6223316157        7.3960575353       14.3781471945
 Ti         4.8726749718        5.9088403533        7.3425855754
 Ti         1.6262369893        5.9184032567       17.6908378219
 Ti         1.6270516832        5.9201639332       11.0154022641
 Ti         4.8726747606        5.8925791729       13.9522075790
 Ti         8.1234469902        7.3977982462        7.8027311408
 Ti        11.3695744593        7.3971696751       17.1945410629
 Ti        11.3695750912        7.3977008544       10.6276599646
 Ti         8.1230179591        7.3960574995       14.3781470547
 Ti        11.3695750271        5.9179893696        7.3135378222
 Ti         8.1191119884        5.9184033263       17.6908376910
 Ti         8.1182982836        5.9201639216       11.0154022289
 Ti        11.3695747970        5.9188884952       13.9789135592
 Ti         1.6219030984       10.3562019118        7.8027311715
 Ti         4.8726744527       10.3503911553       17.1881523624
 Ti         4.8726750939       10.3532240447       10.6380087892
 Ti         1.6223316178       10.3579426588       14.3781471980
 Ti         4.8726749811        8.8770000125        7.3222133370
 Ti         1.6240940689        8.8770000495       17.6907494243
 Ti         1.6239935420        8.8770001555       11.0187466229
 Ti         4.8726748287        8.8770002309       13.9847086884
 Ti         8.1234468982       10.3562018835        7.8027311044
 Ti        11.3695744729       10.3568305462       17.1945410086
 Ti        11.3695750880       10.3562994546       10.6276598415
 Ti         8.1230178717       10.3579425843       14.3781470664
 Ti        11.3695750698        8.8770001243        7.3118577195
 Ti         8.1212548713        8.8770000350       17.6907493476
 Ti         8.1213565880        8.8770001380       11.0187465280
 Ti        11.3695748314        8.8770000441       13.9782257667
  O         1.6188019400        1.4820821162        9.6035780944
  O         1.6099891669        1.4738466559       16.2076159627
  O         4.8726746323        1.3932410342       15.4083757502
  O         4.8726749724        1.4760979267        8.8204353203
  O         4.8726748822        1.4847073060        6.2697979003
  O         4.8726747058        1.3866129103       12.7581214780
  O         1.6259448332        1.4814132062       18.7651236423
  O         1.6167563759        1.4754518458       12.1624478085
  O         0.4004272487        0.0008774986        7.4444677211
  O         3.5824528705       -0.0163941812       10.8087201194
  O         2.8398566426        0.0001153290        7.4522367558
  O         6.1628970630       -0.0163941705       10.8087204757
  O         6.0975305495       -0.0070473828       17.5619732198
  O         2.8852069903       -0.0058977971       14.1721704318
  O         3.6478182727       -0.0070473003       17.5619732307
  O         0.3354571906       -0.0033497975       14.1695890159
  O         8.1265478888        1.4820820603        9.6035780264
  O         8.1353601656        1.4738464398       16.2076158593
  O        11.3695746931        1.4777900679       15.3951621818
  O        11.3695751420        1.4804279791        8.7987263950
  O        11.3695749922        1.4800235109        6.2379849698
  O        11.3695747117        1.4780052705       12.8264587985
  O         8.1194033640        1.4814131906       18.7651234637
  O         8.1285937382        1.4754518647       12.1624477870
  O         6.9054933067        0.0001152705        7.4522365679
  O        10.0928122102       -0.0003982769       10.8238482868
  O         9.3449227573        0.0008774514        7.4444679078
  O        12.6463377993       -0.0003982285       10.8238485007
  O        12.5886108833        0.0004229087       17.5562392630
  O         9.4098923423       -0.0033500160       14.1695891475
  O        10.1505379595        0.0004228690       17.5562392023
  O         6.8601425795       -0.0058976917       14.1721700772
  O         1.6188019784        4.4359181236        9.6035780677
  O         1.6099891720        4.4441536193       16.2076160242
  O         4.8726746718        4.5247591358       15.4083758261
  O         4.8726749716        4.4419021825        8.8204353293
  O         4.8726748928        4.4332926526        6.2697979515
  O         4.8726747248        4.5313872582       12.7581214955
  O         1.6259448167        4.4365868892       18.7651237014
  O         1.6167563327        4.4425483528       12.1624478419
  O         0.4005705804        2.9590000483        7.4453955628
  O         3.5892498347        2.9590000633       10.8374119032
  O         2.8393287837        2.9589999975        7.4534523996
  O         6.1561001176        2.9590000892       10.8374120005
  O         6.0958037438        2.9590000037       17.5356051716
  O         2.8644100023        2.9590001720       14.1826142601
  O         3.6495451918        2.9590000146       17.5356053878
  O         0.3305886499        2.9590000962       14.1714708015
  O         8.1265478570        4.4359181162        9.6035779814
  O         8.1353600795        4.4441537515       16.2076158917
  O        11.3695747100        4.4402100942       15.3951621991
  O        11.3695752550        4.4375723166        8.7987264744
  O        11.3695748871        4.4379768798        6.2379850451
  O        11.3695747426        4.4399949020       12.8264588566
  O         8.1194033832        4.4365868846       18.7651235326
  O         8.1285937826        4.4425482802       12.1624478144
  O         6.9060211563        2.9589999762        7.4534523811
  O        10.0916214885        2.9590001438       10.8282277699
  O         9.3447793741        2.9590000283        7.4453957157
  O        12.6475285052        2.9590001240       10.8282280091
  O        12.5896756248        2.9590000726       17.5543065828
  O         9.4147609661        2.9590000815       14.1714708918
  O        10.1494732844        2.9590000623       17.5543067345
  O         6.8809395150        2.9590000897       14.1826141391
  O         1.6119826524        7.4007997183        9.5989927423
  O         1.6114932339        7.3992178267       16.2078367838
  O         4.8726747500        7.4222930132       15.4019288167
  O         4.8726751044        7.4071959664        8.8069406891
  O         4.8726746506        7.3902358965        6.2597570250
  O         4.8726745575        7.4142695577       12.8217545056
  O         1.6141194119        7.3978418729       18.7666167806
  O         1.6135863152        7.3980942854       12.1614525120
  O         0.4004272231        5.9171226339        7.4444678621
  O         3.5824528433        5.9343943076       10.8087201768
  O         2.8398566053        5.9178847283        7.4522367341
  O         6.1628971165        5.9343942448       10.8087204876
  O         6.0975305543        5.9250474570       17.5619731718
  O         2.8852069943        5.9238979519       14.1721705346
  O         3.6478182601        5.9250474034       17.5619732167
  O         0.3354571332        5.9213499621       14.1695890756
  O         8.1333671775        7.4007996786        9.5989926860
  O         8.1338557055        7.3992177672       16.2078366359
  O        11.3695747766        7.3984696218       15.3955203543
  O        11.3695753553        7.3986503723        8.7955067600
  O        11.3695749860        7.3962662950        6.2361826735
  O        11.3695747408        7.3983147418       12.8266483215
  O         8.1312294933        7.3978418803       18.7666167521
  O         8.1317637333        7.3980942639       12.1614524453
  O         6.9054933454        5.9178847435        7.4522365847
  O        10.0928121928        5.9183985487       10.8238482595
  O         9.3449227851        5.9171226847        7.4444680682
  O        12.6463378278        5.9183985437       10.8238484982
  O        12.5886108777        5.9175772589       17.5562392443
  O         9.4098923027        5.9213500655       14.1695891664
  O        10.1505379636        5.9175772941       17.5562391984
  O         6.8601424965        5.9238978101       14.1721701821
  O         1.6119826336       10.3532004498        9.5989927908
  O         1.6114931842       10.3547822838       16.2078368048
  O         4.8726748036       10.3317072043       15.4019287663
  O         4.8726751520       10.3468040031        8.8069405677
  O         4.8726745264       10.3637640984        6.2597569404
  O         4.8726745484       10.3397306783       12.8217543851
  O         1.6141194352       10.3561582627       18.7666167447
  O         1.6135862829       10.3559060035       12.1614525235
  O         0.3999325324        8.8770000868        7.4408350532
  O         3.5863246328        8.8770000711       10.8258241786
  O         2.8397417726        8.8770000695        7.4460915813
  O         6.1590253466        8.8770000944       10.8258243315
  O         6.0984139662        8.8770000765       17.5603465191
  O         2.8906877155        8.8770000692       14.1709311433
  O         3.6469348529        8.8770000920       17.5603464754
  O         0.3381498271        8.8770001021       14.1694763122
  O         8.1333672052       10.3532004507        9.5989927196
  O         8.1338556993       10.3547822347       16.2078366542
  O        11.3695748239       10.3555305887       15.3955203234
  O        11.3695753858       10.3553500997        8.7955066264
  O        11.3695749271       10.3577339762        6.2361826015
  O        11.3695747750       10.3556853861       12.8266483518
  O         8.1312295300       10.3561582043       18.7666167194
  O         8.1317637513       10.3559059656       12.1614524538
  O         6.9056082075        8.8770000722        7.4460912960
  O        10.0935109084        8.8770001512       10.8253689957
  O         9.3454175212        8.8770000640        7.4408352882
  O        12.6456391218        8.8770001508       10.8253692612
  O        12.5878786253        8.8770000920       17.5552631096
  O         9.4071996022        8.8770000616       14.1694764541
  O        10.1512700877        8.8770000882       17.5552627586
  O         6.8546616336        8.8770000377       14.1709306275
&END COORD
  &KIND H
    BASIS_SET   DZVP-MOLOPT-SR-GTH
    POTENTIAL GTH-PBE-q1
  &END KIND
  &KIND Ti
    BASIS_SET  DZVP-MOLOPT-SR-GTH
    POTENTIAL GTH-PBE-q12
   &DFT_PLUS_U ON
     L 2
     U_MINUS_J [eV] 4.2
     U_RAMPING [eV] 0
   &END DFT_PLUS_U
  &END KIND
  &KIND O
    BASIS_SET  DZVP-MOLOPT-SR-GTH
    POTENTIAL GTH-PBE-q6
  &END KIND
  &KIND C
    BASIS_SET  DZVP-MOLOPT-SR-GTH
    POTENTIAL GTH-PBE-q4
  &END KIND
 &END SUBSYS
&END FORCE_EVAL
