&GLOBAL
  RUN_TYPE  ENERGY
  PRINT_LEVEL MEDIUM
&END GLOBAL

&MOTION
 &GEO_OPT
   MAX_ITER  1000
   MAX_DR    1.E-3
   RMS_DR    3.E-4
   MAX_FORCE 1.E-4
   RMS_FORCE 3.E-5
   OPTIMIZER BFGS
 &END GEO_OPT
&END MOTION

&MULTIPLE_FORCE_EVALS
  FORCE_EVAL_ORDER 2 3
  MULTIPLE_SUBSYS F
&END MULTIPLE_FORCE_EVALS
&FORCE_EVAL
  METHOD MIXED
 &MIXED
   MIXING_TYPE MIXED_CDFT
   NGROUPS 1
  &MIXED_CDFT
    LAMBDA 1.0   
    COUPLING 1   
    LOWDIN T
  &END MIXED_CDFT
 &END MIXED
 &SUBSYS
  &CELL
    ABC 12.9938   11.8360   25.0000
  &END CELL
&COORD
 Ti         1.5784103776        1.5224304675        7.8561967107
 Ti         4.8280390077        1.4333203945       17.2309844441
 Ti         4.8268179385        1.5180974267       10.7000602512
 Ti         1.5783696317        1.4366304601       14.4307461968
 Ti         4.8269657539        0.0463928754        7.3758653157
 Ti         1.5807946229       -0.0466431620       17.7395105046
 Ti         1.5786200667        0.0330645414       11.0692529659
 Ti         4.8258521999       -0.0348203068       14.0170158096
 Ti         8.0765316180        1.5191720137        7.8540721977
 Ti        11.3243409002        1.4324948142       17.2340746582
 Ti        11.3246305040        1.4449269316       10.6591128108
 Ti         8.0771997369        1.4337370183       14.3954744291
 Ti        11.3250568414        0.0457804451        7.3475326939
 Ti         8.0741918112       -0.0470692130       17.7254341666
 Ti         8.0762987694       -0.0372145829       11.0652407203
 Ti        11.3256411965       -0.0439507850       14.0194911802
 Ti         1.5782475118        4.4813580907        7.8564232898
 Ti         4.8333368959        4.3898153063       17.3496671702
 Ti         4.8265948288        4.4756490678       10.7008606282
 Ti         1.5794175606        4.3960417479       14.4354376388
 Ti         4.8269298925        3.0049059002        7.3831529133
 Ti         1.5795596621        2.9118222167       17.7416948057
 Ti         1.5789104772        2.9921713192       11.0703461175
 Ti         4.8265186921        2.9324712563       14.0731524611
 Ti         8.0767303867        4.4781215776        7.8538086002
 Ti        11.3261300848        4.3930210662       17.2323833013
 Ti        11.3247563266        4.4039022231       10.6591433612
 Ti         8.0781662109        4.3938207353       14.3921085220
 Ti        11.3250866021        3.0047808672        7.3473451466
 Ti         8.0789688417        2.9036039665       17.6844530280
 Ti         8.0760335440        2.9226758610       11.0628176968
 Ti        11.3257555281        2.9153807712       14.0184869172
 Ti         1.5784388224        7.4402825492        7.8560891770
 Ti         4.8300312308        7.3564715714       17.2252946584
 Ti         4.8267868405        7.4337385234       10.6986330151
 Ti         1.5789355549        7.3547085131       14.4302541312
 Ti         4.8269603747        5.9640195675        7.3823429248
 Ti         1.5791042513        5.8728474766       17.7436331516
 Ti         1.5789999115        5.9502841379       11.0704159512
 Ti         4.8268560662        5.8645574953       14.0688654616
 Ti         8.0765339841        7.4370926911        7.8541627951
 Ti        11.3241779292        7.3530890548       17.2341592220
 Ti        11.3246597187        7.3628804715       10.6591265703
 Ti         8.0775154833        7.3537282969       14.3945021981
 Ti        11.3251036983        5.9638087546        7.3473685452
 Ti         8.0775735612        5.8811147568       17.6825810425
 Ti         8.0759772456        5.8824596938       11.0626846254
 Ti        11.3256837394        5.8745990715       14.0183972804
 Ti         1.5783786733       10.3994058609        7.8555212932
 Ti         4.8237762060       10.3125252638       17.2307425536
 Ti         4.8268735127       10.3941407066       10.6887433429
 Ti         1.5789247133       10.3136934537       14.4290935064
 Ti         4.8270060385        8.9225485779        7.3748521464
 Ti         1.5811592784        8.8315027512       17.7403980028
 Ti         1.5787329988        8.9094962589       11.0686494252
 Ti         4.8258009519        8.8325612403       14.0153094672
 Ti         8.0766367121       10.3961728397        7.8537150668
 Ti        11.3240240569       10.3108750022       17.2336026729
 Ti        11.3246041363       10.3218551288       10.6593711908
 Ti         8.0757057659       10.3116760905       14.4161618494
 Ti        11.3250730755        8.9227991488        7.3475731495
 Ti         8.0750965010        8.8317050545       17.7245439688
 Ti         8.0762164152        8.8424332292       11.0649159427
 Ti        11.3253282665        8.8337859946       14.0197444770
  O         1.5795359952        1.5083050583        9.6567873813
  O         1.5761003589        1.4362878758       16.2550092214
  O         4.8215376402        1.4273880822       15.4315869404
  O         4.8278798473        1.5165342162        8.8688976109
  O         4.8276759907        1.5247814349        6.3084327914
  O         4.8255997652        1.4600518994       12.8903256116
  O         1.5768643107        1.4344765090       18.8096373541
  O         1.5762136832        1.4993836819       12.2144916818
  O         0.3558574559        0.0417080864        7.5017953208
  O         3.5487548691        0.0239036111       10.8899378202
  O         2.7984836306        0.0433528258        7.5063306336
  O         6.1060381071        0.0156988181       10.8903429061
  O         6.0498000993       -0.0474987188       17.5852284842
  O         2.8528327221       -0.0377298680       14.2150553100
  O         3.6015814268       -0.0500448125       17.5874264763
  O         0.3002530826       -0.0379347679       14.2174396926
  O         8.0748660563        1.4839124447        9.6560171408
  O         8.0878441493        1.4300743032       16.2273014590
  O        11.3218488479        1.4370508451       15.4357584857
  O        11.3237672309        1.4934472035        8.8354049209
  O        11.3239623231        1.5179231568        6.2788277134
  O        11.3273783943        1.4393318038       12.8752593159
  O         8.0736690608        1.4451640249       18.7827197757
  O         8.0783484028        1.4548179765       12.2113661452
  O         6.8568194508        0.0415906896        7.5058580479
  O        10.0471963546       -0.0213284329       10.8745856948
  O         9.2983667906        0.0399187363        7.5014467326
  O        12.6000157173       -0.0126070011       10.8742656527
  O        12.5437755276       -0.0443875388       17.5861658112
  O         9.3553035399       -0.0441431828       14.2038365908
  O        10.1018795154       -0.0453535421       17.5858351976
  O         6.8000955679       -0.0418611173       14.2054030448
  O         1.5791320153        4.4672159157        9.6570449568
  O         1.5804249362        4.4010814548       16.2609805106
  O         4.8227308678        4.4048250739       15.4797946631
  O         4.8278688735        4.4755002967        8.8710071637
  O         4.8276876392        4.4820092016        6.3118497307
  O         4.8244444599        4.4056933462       12.9011813408
  O         1.5820036670        4.3931329212       18.8131884143
  O         1.5761881132        4.4577622694       12.2154542635
  O         0.3557363338        3.0006347705        7.5018825078
  O         3.5482061879        2.9837950480       10.8908229972
  O         2.7980879294        3.0023579515        7.5074312509
  O         6.1070494260        2.9759167539       10.8911678890
  O         6.0775115169        2.8767623801       17.4907320650
  O         2.8510426229        2.9219007702       14.2306484741
  O         3.6045560393        2.9030709701       17.5799974955
  O         0.3011686006        2.9217939465       14.2208498831
  O         8.0753762935        4.4423546528        9.6560583458
  O         8.1038407793        4.3946064237       16.2223548352
  O        11.3226450721        4.3957076239       15.4340822375
  O        11.3238169666        4.4524563953        8.8354082108
  O        11.3240013462        4.4769902287        6.2787312075
  O        11.3280716930        4.3987130317       12.8746636814
  O         7.9636387607        4.3936765023       18.7883319378
  O         8.0785960849        4.4135965749       12.2109410509
  O         6.8571794184        3.0006391990        7.5067512764
  O        10.0470103407        2.9375551333       10.8745616088
  O         9.2985003291        2.9989411071        7.5012795788
  O        12.5997860343        2.9461884419       10.8746196589
  O        12.5442295566        2.9135661951       17.5879026696
  O         9.3572072214        2.9158581343       14.1981180255
  O        10.0983130631        2.9190185737       17.5904601763
  O         6.8019420432        2.9180373037       14.2122698760
  O         1.5794860272        7.4258596022        9.6566219921
  O         1.5841415287        7.3518852915       16.2571791778
  O         4.8162644029        7.3682982600       15.4273649402
  O         4.8279004886        7.4346119614        8.8677201036
  O         4.8276620145        7.4395131399        6.3074587400
  O         4.8255183351        7.3575906081       12.8869653275
  O         1.5755519335        7.3528840041       18.8133426189
  O         1.5757699768        7.4167848671       12.2141283605
  O         0.3557443919        5.9597879134        7.5017923735
  O         3.5482870212        5.9408443699       10.8906670044
  O         2.7981416359        5.9611569354        7.5072767140
  O         6.1069752360        5.9323820936       10.8910882474
  O         6.0805186337        5.9246826616       17.4907800969
  O         2.8503718947        5.8808987762       14.2237670768
  O         3.6204006835        5.8860223901       17.6446191381
  O         0.3009677754        5.8806182275       14.2207391341
  O         8.0749673324        7.4008838301        9.6560689132
  O         8.0903989090        7.3593729713       16.2258379516
  O        11.3218128001        7.3538290065       15.4358024298
  O        11.3237690928        7.4113148432        8.8353892787
  O        11.3239494461        7.4360656631        6.2788255007
  O        11.3274620703        7.3585308689       12.8752266688
  O         8.0724053820        7.3406408440       18.7841247343
  O         8.0786342519        7.3726528339       12.2109855964
  O         6.8571298127        5.9594302647        7.5066642841
  O        10.0470353200        5.8965204320       10.8745783368
  O         9.2984471425        5.9579528837        7.5012700389
  O        12.5997791215        5.9052149038       10.8747328986
  O        12.5443983290        5.8727551665       17.5903503988
  O         9.3574394589        5.8776663779       14.1977025060
  O        10.0985949813        5.8670188960       17.5896884585
  O         6.8022062717        5.8779838497       14.2097842066
  O         1.5798281528       10.3854796188        9.6560679142
  O         1.5764363155       10.3136719655       16.2533026683
  O         4.8282268039       10.3162887470       15.4325353115
  O         4.8278534244       10.3940538189        8.8617549785
  O         4.8277172661       10.4002937287        6.3045987396
  O         4.8250578604       10.3253983826       12.8748515959
  O         1.5742500289       10.3110482797       18.8096647734
  O         1.5752831218       10.3756196911       12.2127951688
  O         0.3558574856        8.9186914347        7.5018200570
  O         3.5486510566        8.9006660860       10.8890099485
  O         2.7985451560        8.9202605120        7.5062774453
  O         6.1062087332        8.8923849788       10.8895312937
  O         6.0489920135        8.8325817304       17.5865478804
  O         2.8522504318        8.8413344630       14.2139550962
  O         3.6017134763        8.8379690647       17.5895252061
  O         0.3006483481        8.8381928542       14.2198253784
  O         8.0747377450       10.3606235575        9.6558004689
  O         8.0764567664       10.3115908229       16.2431499531
  O        11.3224224986       10.3135399407       15.4346978321
  O        11.3238113154       10.3705178805        8.8355674155
  O        11.3239608323       10.3949522050        6.2789216752
  O        11.3275671326       10.3166468639       12.8750848364
  O         8.0775773305       10.3100786025       18.7969470593
  O         8.0783854029       10.3316325454       12.2105179481
  O         6.8567384045        8.9184937284        7.5058344205
  O        10.0471874771        8.8554959486       10.8742731981
  O         9.2983379395        8.9170244304        7.5015041568
  O        12.5999648864        8.8641587731       10.8739013887
  O        12.5447070393        8.8298268415       17.5849933236
  O         9.3554873790        8.8382146998       14.2029023297
  O        10.1024140479        8.8307936776       17.5867916587
  O         6.7998006945        8.8369457932       14.2056854785
  O         5.2698466071        4.3015087169       19.5656502588
  H         4.9286855719        5.0347288186       20.1043282371
  H         6.2632388592        4.3641591791       19.5850715726
&END COORD
  &KIND H
    BASIS_SET   DZVP-MOLOPT-SR-GTH
    POTENTIAL GTH-PBE-q1
  &END KIND
  &KIND Ti
    BASIS_SET  DZVP-MOLOPT-SR-GTH
    POTENTIAL GTH-PBE-q12
   &DFT_PLUS_U ON
     L 2
     U_MINUS_J [eV] 4.2
     U_RAMPING [eV] 0
   &END DFT_PLUS_U
  &END KIND
  &KIND O
    BASIS_SET  DZVP-MOLOPT-SR-GTH
    POTENTIAL GTH-PBE-q6
  &END KIND
  &KIND C
    BASIS_SET  DZVP-MOLOPT-SR-GTH
    POTENTIAL GTH-PBE-q4
  &END KIND
 &END SUBSYS
&END FORCE_EVAL

&FORCE_EVAL
 &DFT
   BASIS_SET_FILE_NAME  BASIS_SET
   POTENTIAL_FILE_NAME  GTH_POTENTIALS
   WFN_RESTART_FILE_NAME PROJECT-40-RESTART.wfn
UKS T
  MULTIPLICITY 2
  CHARGE -1
  PLUS_U_METHOD LOWDIN
 &MGRID
   NGRIDS 5
  &RS_GRID
  &END RS_GRID
   CUTOFF 500
   COMMENSURATE
  &END MGRID
  &QS
    EXTRAPOLATION ASPC
    EXTRAPOLATION_ORDER 3
    EPS_DEFAULT 1.0E-12
   &CDFT 
     TYPE_OF_CONSTRAINT Hirshfeld 
     ATOMIC_CHARGES T 
     STRENGTH -0.028073345572
     TARGET 1
    &ATOM_GROUP 
      ATOMS 40 
      COEFF 1 
      CONSTRAINT_TYPE  MAGNETIZATION 
    &END ATOM_GROUP
    &OUTER_SCF 
      TYPE CDFT_CONSTRAINT 
      EPS_SCF 1E-3
      OPTIMIZER SECANT
      STEP_SIZE 0.05 
    &END OUTER_SCF
    &HIRSHFELD_CONSTRAINT
      SHAPE_FUNCTION DENSITY 
    &END HIRSHFELD_CONSTRAINT
   &END CDFT
  &END QS
  &SCF
    EPS_SCF 5.0E-7
    MAX_SCF 100
    SCF_GUESS RESTART
   &OUTER_SCF
     MAX_SCF 20
     OPTIMIZER DIIS
     STEP_SIZE 0.15
     EPS_SCF 5.0E-7
   &END OUTER_SCF
   &OT T
    MINIMIZER CG
    ALGORITHM IRAC
    PRECONDITIONER FULL_ALL
    ENERGY_GAP 0.001
   &END OT
  &END SCF
  &PRINT
   &E_DENSITY_CUBE
     STRIDE 3 
   &END E_DENSITY_CUBE
  &END PRINT
  &XC
   &XC_FUNCTIONAL PBE
   &END XC_FUNCTIONAL
   &VDW_POTENTIAL
     POTENTIAL_TYPE PAIR_POTENTIAL
    &PAIR_POTENTIAL
      TYPE DFTD3
      PARAMETER_FILE_NAME dftd3.dat
      REFERENCE_FUNCTIONAL PBE
    &END PAIR_POTENTIAL
   &END VDW_POTENTIAL
   &XC_GRID
     XC_SMOOTH_RHO NN10
     XC_DERIV SPLINE2_smooth
   &END XC_GRID
  &END XC
 &END DFT
&END FORCE_EVAL

&FORCE_EVAL
 &DFT
   BASIS_SET_FILE_NAME  BASIS_SET
   POTENTIAL_FILE_NAME  GTH_POTENTIALS
   WFN_RESTART_FILE_NAME PROJECT-19-RESTART.wfn
UKS T
  MULTIPLICITY 2
  CHARGE -1
  PLUS_U_METHOD LOWDIN
 &MGRID
   NGRIDS 5
  &RS_GRID
  &END RS_GRID
   CUTOFF 500
   COMMENSURATE
  &END MGRID
  &QS
    EXTRAPOLATION ASPC
    EXTRAPOLATION_ORDER 3
    EPS_DEFAULT 1.0E-12
   &CDFT 
     TYPE_OF_CONSTRAINT Hirshfeld 
     ATOMIC_CHARGES T 
     STRENGTH -0.026159590680  
     TARGET 1 
    &ATOM_GROUP
      ATOMS 19 
      COEFF 1
      CONSTRAINT_TYPE  MAGNETIZATION 
    &END ATOM_GROUP
    &OUTER_SCF 
      TYPE CDFT_CONSTRAINT
      EPS_SCF 1E-3
      OPTIMIZER SECANT
      STEP_SIZE 0.05
    &END OUTER_SCF
    &HIRSHFELD_CONSTRAINT
      SHAPE_FUNCTION DENSITY 
    &END HIRSHFELD_CONSTRAINT
   &END CDFT
  &END QS
  &SCF
    EPS_SCF 5.0E-7
    MAX_SCF 100
    SCF_GUESS RESTART
   &OUTER_SCF
     MAX_SCF 20
     OPTIMIZER DIIS
     STEP_SIZE 0.15
     EPS_SCF 5.0E-7
   &END OUTER_SCF
   &OT T
     MINIMIZER CG
     ALGORITHM IRAC
     PRECONDITIONER FULL_ALL
     ENERGY_GAP 0.001
   &END OT
  &END SCF
  &PRINT
   &E_DENSITY_CUBE
     STRIDE 3 
   &END E_DENSITY_CUBE
  &END PRINT
  &XC
   &XC_FUNCTIONAL PBE
   &END XC_FUNCTIONAL
   &VDW_POTENTIAL
     POTENTIAL_TYPE PAIR_POTENTIAL
    &PAIR_POTENTIAL
      TYPE DFTD3
      PARAMETER_FILE_NAME dftd3.dat
      REFERENCE_FUNCTIONAL PBE
    &END PAIR_POTENTIAL
   &END VDW_POTENTIAL
   &XC_GRID
     XC_SMOOTH_RHO NN10
     XC_DERIV SPLINE2_smooth
   &END XC_GRID
  &END XC
 &END DFT
&END FORCE_EVAL
