&GLOBAL
  RUN_TYPE  ENERGY 
  PRINT_LEVEL MEDIUM
&END GLOBAL

&MOTION
 &GEO_OPT
   MAX_ITER  1000
   MAX_DR    1.E-3
   RMS_DR    3.E-4
   MAX_FORCE 1.E-4
   RMS_FORCE 3.E-5
   OPTIMIZER BFGS
 &END GEO_OPT
&END MOTION

&MULTIPLE_FORCE_EVALS
  FORCE_EVAL_ORDER 2 3
  MULTIPLE_SUBSYS F
&END MULTIPLE_FORCE_EVALS
&FORCE_EVAL
  METHOD MIXED
 &MIXED
   MIXING_TYPE MIXED_CDFT
   NGROUPS 1 
  &MIXED_CDFT
    LAMBDA 1.0   
    COUPLING 1   
    LOWDIN T
  &END MIXED_CDFT
 &END MIXED
 &SUBSYS
  &CELL
    ABC 13.9105   13.9105   15.0489
  &END CELL
&COORD
 Ti         0.0001973797       -0.0002912616        0.0002687050
 Ti         2.3182956516        2.3182740147        1.5051894616
 Ti         4.6362936284        0.0000317984       -0.0000593491
 Ti         6.9550587342        2.3182998929        1.5051243222
 Ti         9.2731299271        0.0000644412       -0.0000838351
 Ti        11.5916777976        2.3182327637        1.5050566334
 Ti        -0.0005691886        4.6369161723        0.0002582861
 Ti         2.3180276773        6.9553612773        1.5054380813
 Ti         4.6363385594        4.6368608341        0.0001737683
 Ti         6.9550113050        6.9550067145        1.5051392454
 Ti         9.2736366507        4.6370933668        0.0003765430
 Ti        11.5920748533        6.9555290844        1.5052451193
 Ti        -0.0004463414        9.2740926469        0.0002038519
 Ti         2.3183959827       11.5917075186        1.5053456675
 Ti         4.6368607785        9.2731710560        0.0000530062
 Ti         6.9552987035       11.5922068012        1.5052151681
 Ti         9.2732996169        9.2734109760        0.0002301349
 Ti        11.5916433477       11.5922546163        1.5051328538
 Ti        -0.0001546048       -0.0001018040        3.0101340408
 Ti         2.3185385467        2.3179673783        4.5145730110
 Ti         4.6368129762       -0.0003229804        3.0099617482
 Ti         6.9555524110        2.3182027369        4.5143305019
 Ti         9.2736452599       -0.0000163594        3.0099733704
 Ti        11.5921401888        2.3185621682        4.5143558330
 Ti         0.0000653898        4.6365844447        3.0100059490
 Ti         2.3186470929        6.9550793046        4.5147247955
 Ti         4.6365952805        4.6364047564        3.0099545809
 Ti         6.9549941326        6.9551992897        4.5142847674
 Ti         9.2736449455        4.6369988756        3.0103276077
 Ti        11.5924719912        6.9552368155        4.5143927609
 Ti         0.0001502758        9.2740029004        3.0101624048
 Ti         2.3186694344       11.5921419900        4.5149017808
 Ti         4.6367921881        9.2737663057        3.0099400180
 Ti         6.9553147333       11.5919517845        4.5145526218
 Ti         9.2736863813        9.2735805929        3.0102016384
 Ti        11.5921390376       11.5919476706        4.5145212106
 Ti        -0.0001125835       -0.0004955646        6.0194867186
 Ti         2.3180914411        2.3180710133        7.5244207139
 Ti         4.6369370674        0.0000134584        6.0194768514
 Ti         6.9557229131        2.3180884758        7.5243317896
 Ti         9.2739824302       -0.0001703836        6.0193373927
 Ti        11.5917279109        2.3180581334        7.5243632892
 Ti         0.0001151121        4.6364718931        6.0192138242
 Ti         2.3187722534        6.9549197817        7.5245421187
 Ti         4.6369306004        4.6361821242        6.0192211596
 Ti         6.9546736332        6.9550705488        7.5243101979
 Ti         9.2736206727        4.6370360218        6.0195853941
 Ti        11.5923967943        6.9548788482        7.5243064393
 Ti         0.0002475366        9.2735041961        6.0194932671
 Ti         2.3182932754       11.5918255834        7.5248077287
 Ti         4.6370761907        9.2737020672        6.0192716778
 Ti         6.9558598407       11.5920645123        7.5244996523
 Ti         9.2736311181        9.2730690813        6.0194434220
 Ti        11.5916396380       11.5917082344        7.5244317189
 Ti        -0.0001859917       -0.0000605614        9.0299729748
 Ti         2.3183927316        2.3184112178       10.5344618751
 Ti         4.6370622731        0.0000015299        9.0297060713
 Ti         6.9552168764        2.3187577802       10.5343180952
 Ti         9.2736390193       -0.0000349680        9.0299454936
 Ti        11.5918757985        2.3185117441       10.5344402507
 Ti        -0.0003089563        4.6365705685        9.0297265078
 Ti         2.3183914868        6.9551652832       10.5342119042
 Ti         4.6367361871        4.6363430852        9.0295506890
 Ti         6.9551507860        6.9554072406       10.5341550617
 Ti         9.2736692974        4.6372000176        9.0298354582
 Ti        11.5923960490        6.9555064788       10.5343219917
 Ti        -0.0000747891        9.2738352670        9.0297071125
 Ti         2.3186330106       11.5921610567       10.5346215964
 Ti         4.6369148719        9.2740486357        9.0296696004
 Ti         6.9553974252       11.5919621840       10.5345977768
 Ti         9.2738221994        9.2733349759        9.0297971582
 Ti        11.5920842563       11.5923392256       10.5344307385
 Ti         0.0000799068       -0.0001683747       12.0392612727
 Ti         2.3181019857        2.3187038417       13.5436750103
 Ti         4.6368994017        0.0003137749       12.0389929077
 Ti         6.9549355751        2.3188387143       13.5437336873
 Ti         9.2733550106        0.0000792737       12.0391262414
 Ti        11.5919393596        2.3183522093       13.5436062389
 Ti         0.0001134121        4.6368195592       12.0390524137
 Ti         2.3179508953        6.9554100005       13.5438576307
 Ti         4.6366554049        4.6369960502       12.0390719479
 Ti         6.9551868211        6.9550343485       13.5435117562
 Ti         9.2737592911        4.6371244044       12.0391906990
 Ti        11.5920869239        6.9553297670       13.5436813368
 Ti         0.0000048547        9.2738387231       12.0389921680
 Ti         2.3186557948       11.5917633402       13.5437589037
 Ti         4.6366606965        9.2732532760       12.0390174672
 Ti         6.9548411965       11.5919169585       13.5437428942
 Ti         9.2737319606        9.2736661278       12.0392238870
 Ti        11.5917581517       11.5921472981       13.5438016640
  O         1.4179043354        1.4178527153        0.0000391676
  O         3.2188183274        3.2189484824        0.0000340583
  O         0.9003819946        3.7361801981        1.5055712341
  O         3.7360446210        0.9004470777        1.5056169968
  O         6.0545497439        1.4181617625        0.0000248156
  O         7.8555743715        3.2191106583        0.0000280969
  O         5.5370527156        3.7362231953        1.5055757214
  O         8.3729046297        0.9004742626        1.5056044848
  O        10.6911756760        1.4179241870        0.0000847552
  O        12.4924322022        3.2189398699        0.0000206028
  O        10.1740710708        3.7365059418        1.5055704321
  O        13.0100526921        0.9001998836        1.5056056726
  O         1.4176471510        6.0548869378        0.0000559402
  O         3.2188873402        7.8556688514        0.0000008850
  O         0.9003168909        8.3734072424        1.5055750228
  O         3.7362077578        5.5371114217        1.5056182932
  O         6.0545386573        6.0545933213        0.0000416391
  O         7.8555948525        7.8556640997        0.0000465389
  O         5.5372192916        8.3729753659        1.5056223483
  O         8.3730701325        5.5374047394        1.5055977474
  O        10.6915101976        6.0549435524        0.0000250546
  O        12.4924906164        7.8560512244        0.0000804256
  O        10.1741398526        8.3731042583        1.5056037588
  O        13.0098650990        5.5373602175        1.5055757907
  O         1.4178660362       10.6914837061        0.0000792873
  O         3.2188984237       12.4925091428        0.0000507363
  O         0.9004600197       13.0097967272        1.5056367444
  O         3.7362165706       10.1740599024        1.5056183676
  O         6.0547510117       10.6913621714        0.0000128600
  O         7.8556315429       12.4927234293        0.0000791470
  O         5.5372151842       13.0101316309        1.5055707158
  O         8.3732151639       10.1740543553        1.5056119301
  O        10.6914348151       10.6915762926        0.0000523861
  O        12.4923568215       12.4925280128        0.0000686228
  O        10.1740896360       13.0099683789        1.5055610398
  O        13.0099785039       10.1743992270        1.5056640814
  O         1.4180173408        1.4178759014        3.0103286451
  O         3.2189024802        3.2186872592        3.0102530253
  O         0.9004661815        3.7361374734        4.5141969855
  O         3.7363618713        0.9003503628        4.5142552426
  O         6.0548576201        1.4179930208        3.0102803848
  O         7.8555515114        3.2188546310        3.0102603805
  O         5.5371923340        3.7361651195        4.5142362535
  O         8.3733116381        0.9004279663        4.5142143516
  O        10.6914103980        1.4179427454        3.0101985144
  O        12.4924643715        3.2187347864        3.0102925737
  O        10.1740513240        3.7365193522        4.5141814928
  O        13.0100224086        0.9000976124        4.5142468940
  O         1.4179892127        6.0547681856        3.0102255755
  O         3.2188352601        7.8555994424        3.0103246216
  O         0.9004225893        8.3733949537        4.5142648945
  O         3.7363811550        5.5368347006        4.5142485864
  O         6.0547418060        6.0546611051        3.0103098522
  O         7.8555427188        7.8555081692        3.0102839459
  O         5.5372956112        8.3731553310        4.5142544076
  O         8.3731902585        5.5372525083        4.5142254905
  O        10.6916510051        6.0549422370        3.0102692343
  O        12.4925741190        7.8557701551        3.0102887839
  O        10.1742223771        8.3730899999        4.5142515337
  O        13.0101213270        5.5372067960        4.5142297129
  O         1.4180126307       10.6915768158        3.0103285932
  O         3.2188865126       12.4923877157        3.0103191675
  O         0.9004336889       13.0098898689        4.5143550554
  O         3.7364462628       10.1741772744        4.5143142784
  O         6.0548329855       10.6915754087        3.0103021277
  O         7.8557880988       12.4925075890        3.0102685572
  O         5.5372451904       13.0100689437        4.5142299971
  O         8.3733609092       10.1737990189        4.5142426379
  O        10.6916103613       10.6915986714        3.0103177317
  O        12.4923357900       12.4923693862        3.0103458440
  O        10.1742274412       13.0100462795        4.5142053673
  O        13.0101506915       10.1741635494        4.5142436675
  O         1.4179609697        1.4176985557        6.0188963854
  O         3.2189904805        3.2186070668        6.0189749216
  O         0.9005054293        3.7359761854        7.5244239532
  O         3.7363100373        0.9004286822        7.5244710252
  O         6.0549908429        1.4178287139        6.0188913892
  O         7.8557606704        3.2188553711        6.0189017415
  O         5.5373996760        3.7360582523        7.5244489199
  O         8.3732019531        0.9005211077        7.5244515642
  O        10.6913855562        1.4178175269        6.0189114353
  O        12.4925321011        3.2187734329        6.0188690982
  O        10.1740545108        3.7364238033        7.5244841781
  O        13.0098467915        0.9002808752        7.5245182991
  O         1.4180666828        6.0546018106        6.0189299546
  O         3.2191404416        7.8554964000        6.0188746103
  O         0.9005976604        8.3732226925        7.5244614671
  O         3.7364020294        5.5369802952        7.5245085199
  O         6.0546367190        6.0545337258        6.0189016538
  O         7.8556384408        7.8555853531        6.0189408478
  O         5.5373850562        8.3730464019        7.5244540353
  O         8.3730702499        5.5374224963        7.5244332802
  O        10.6917353828        6.0547683739        6.0189455671
  O        12.4928215212        7.8556342122        6.0188872955
  O        10.1742873438        8.3728456454        7.5244844347
  O        13.0099596386        5.5372492243        7.5244983842
  O         1.4180284783       10.6915049107        6.0189910042
  O         3.2189601301       12.4924413085        6.0189780562
  O         0.9004534537       13.0097448632        7.5245010423
  O         3.7363135105       10.1742080390        7.5245477938
  O         6.0549821608       10.6914738290        6.0189624705
  O         7.8560433714       12.4924686014        6.0188770641
  O         5.5375909003       13.0101585440        7.5244844785
  O         8.3733765263       10.1740123339        7.5244880114
  O        10.6916512747       10.6913911793        6.0189625692
  O        12.4924648894       12.4922863978        6.0189262241
  O        10.1742511571       13.0098200352        7.5244307227
  O        13.0099769350       10.1741071516        7.5245021577
  O         1.4178867688        1.4177687017        9.0300852750
  O         3.2188798170        3.2187987993        9.0299749793
  O         0.9003468552        3.7361605836       10.5347931971
  O         3.7364576172        0.9005392542       10.5347273749
  O         6.0549480400        1.4179709240        9.0300434604
  O         7.8556754695        3.2189772376        9.0300840799
  O         5.5371630520        3.7362597020       10.5347172088
  O         8.3732001043        0.9004361154       10.5347076536
  O        10.6913486255        1.4178710130        9.0300324499
  O        12.4924402437        3.2188307018        9.0300249142
  O        10.1740681893        3.7365812950       10.5347270602
  O        13.0100465510        0.9002397693       10.5347294447
  O         1.4180228865        6.0546837477        9.0300392483
  O         3.2189526164        7.8555985489        9.0300551101
  O         0.9002890020        8.3734002666       10.5347927756
  O         3.7363432702        5.5370350027       10.5346812447
  O         6.0546412845        6.0546256160        9.0300319776
  O         7.8555919204        7.8555924320        9.0300542215
  O         5.5372530325        8.3731453885       10.5347838620
  O         8.3732881453        5.5374536593       10.5347166226
  O        10.6917176863        6.0548364824        9.0300166046
  O        12.4927108473        7.8557592896        9.0300694532
  O        10.1742497142        8.3732294143       10.5347233354
  O        13.0100965767        5.5372786481       10.5345923723
  O         1.4179478919       10.6915115649        9.0300643069
  O         3.2189643285       12.4924847191        9.0300976207
  O         0.9003600953       13.0099377443       10.5347724032
  O         3.7363601124       10.1741341714       10.5346688251
  O         6.0548737504       10.6915532448        9.0300436258
  O         7.8560436126       12.4925424885        9.0300439915
  O         5.5373080481       13.0102464040       10.5347672421
  O         8.3733618637       10.1739425261       10.5346883589
  O        10.6916127462       10.6914130760        9.0300474795
  O        12.4922980944       12.4924360424        9.0300698377
  O        10.1741187653       13.0100735867       10.5347252766
  O        13.0101485884       10.1742714804       10.5346809199
  O         1.4180478328        1.4179577697       12.0386844016
  O         3.2187426122        3.2189313019       12.0386768809
  O         0.9004415903        3.7362535292       13.5433539409
  O         3.7361875442        0.9005467921       13.5433627883
  O         6.0547659330        1.4181884983       12.0387565211
  O         7.8554441309        3.2190637190       12.0387018686
  O         5.5370992598        3.7364010792       13.5433768239
  O         8.3729760722        0.9005714875       13.5433408694
  O        10.6913855526        1.4180115908       12.0387104210
  O        12.4923459311        3.2187992724       12.0387091198
  O        10.1740655394        3.7365476039       13.5433644282
  O        13.0100579875        0.9003033903       13.5434335408
  O         1.4177955851        6.0548826946       12.0386682008
  O         3.2187833870        7.8556352501       12.0387223124
  O         0.9002104413        8.3733654080       13.5433796379
  O         3.7361148916        5.5371426960       13.5433159484
  O         6.0546921105        6.0547295149       12.0386901749
  O         7.8555848955        7.8555915615       12.0387029304
  O         5.5372458094        8.3729251471       13.5433447239
  O         8.3731243580        5.5375101130       13.5433671781
  O        10.6917105562        6.0550086297       12.0387231241
  O        12.4925717047        7.8558523569       12.0386591646
  O        10.1741746473        8.3732306395       13.5433507545
  O        13.0098395292        5.5374333006       13.5433813512
  O         1.4180776576       10.6915368222       12.0387258345
  O         3.2187925163       12.4924437157       12.0386958620
  O         0.9004850846       13.0097825269       13.5433720706
  O         3.7363005914       10.1740960481       13.5434095901
  O         6.0548971845       10.6915279950       12.0387052354
  O         7.8556660511       12.4925570647       12.0387220745
  O         5.5371065692       13.0100379440       13.5434101242
  O         8.3732051608       10.1740148267       13.5434001642
  O        10.6915951187       10.6917433262       12.0387063067
  O        12.4923146405       12.4924946324       12.0387216419
  O        10.1739834438       13.0100624514       13.5434364390
  O        13.0098999795       10.1744140202       13.5434057193
&END COORD
  &KIND H
    BASIS_SET   DZVP-MOLOPT-SR-GTH
    POTENTIAL GTH-PBE-q1
  &END KIND
  &KIND Ti
    BASIS_SET  DZVP-MOLOPT-SR-GTH
    POTENTIAL GTH-PBE-q12
   &DFT_PLUS_U ON
     L 2
     U_MINUS_J [eV] 4.2
     U_RAMPING [eV] 0
   &END DFT_PLUS_U
  &END KIND
  &KIND O
    BASIS_SET  DZVP-MOLOPT-SR-GTH
    POTENTIAL GTH-PBE-q6
  &END KIND
  &KIND C
    BASIS_SET  DZVP-MOLOPT-SR-GTH
    POTENTIAL GTH-PBE-q4
  &END KIND
 &END SUBSYS
&END FORCE_EVAL

&FORCE_EVAL
 &DFT
   BASIS_SET_FILE_NAME  BASIS_SET
   POTENTIAL_FILE_NAME  GTH_POTENTIALS
   WFN_RESTART_FILE_NAME PROJECT-46-RESTART.wfn
UKS T
  MULTIPLICITY 2
  CHARGE -1
  PLUS_U_METHOD LOWDIN
 &MGRID
   NGRIDS 5
  &RS_GRID
  &END RS_GRID
   CUTOFF 800
   COMMENSURATE
  &END MGRID
  &QS
    EXTRAPOLATION ASPC
    EXTRAPOLATION_ORDER 3
    EPS_DEFAULT 1.0E-12
   &CDFT 
     TYPE_OF_CONSTRAINT Hirshfeld 
     ATOMIC_CHARGES T 
     STRENGTH -0.024344071261 
     TARGET 1 
    &ATOM_GROUP 
      ATOMS 46  
      COEFF 1 
      CONSTRAINT_TYPE  MAGNETIZATION  
    &END ATOM_GROUP
    &OUTER_SCF 
      TYPE CDFT_CONSTRAINT 
      EPS_SCF 1E-3 
      OPTIMIZER SECANT
      STEP_SIZE 0.05 
    &END OUTER_SCF
    &HIRSHFELD_CONSTRAINT
      SHAPE_FUNCTION DENSITY 
    &END HIRSHFELD_CONSTRAINT
   &END CDFT
  &END QS
  &SCF
    EPS_SCF 5.0E-7
    MAX_SCF 100
    SCF_GUESS RESTART
   &OUTER_SCF
     MAX_SCF 20
     OPTIMIZER DIIS
     STEP_SIZE 0.15
     EPS_SCF 5.0E-7
   &END OUTER_SCF
   &OT T
    MINIMIZER CG
    ALGORITHM IRAC
    PRECONDITIONER FULL_ALL
    ENERGY_GAP 0.001
   &END OT
  &END SCF
  &PRINT
   &E_DENSITY_CUBE
     STRIDE 3 
   &END E_DENSITY_CUBE
  &END PRINT
  &XC
   &XC_FUNCTIONAL PBE
   &END XC_FUNCTIONAL
   &VDW_POTENTIAL
     POTENTIAL_TYPE PAIR_POTENTIAL
    &PAIR_POTENTIAL
      TYPE DFTD3
      PARAMETER_FILE_NAME dftd3.dat
      REFERENCE_FUNCTIONAL PBE
    &END PAIR_POTENTIAL
   &END VDW_POTENTIAL
   &XC_GRID
     XC_SMOOTH_RHO NN10
     XC_DERIV SPLINE2_smooth
   &END XC_GRID
  &END XC
 &END DFT
&END FORCE_EVAL

&FORCE_EVAL
 &DFT
   BASIS_SET_FILE_NAME  BASIS_SET
   POTENTIAL_FILE_NAME  GTH_POTENTIALS
   WFN_RESTART_FILE_NAME PROJECT-71-RESTART.wfn
UKS T
  MULTIPLICITY 2
  CHARGE -1
  PLUS_U_METHOD LOWDIN
 &MGRID
   NGRIDS 5
  &RS_GRID
  &END RS_GRID
   CUTOFF 800
   COMMENSURATE
  &END MGRID
  &QS
    EXTRAPOLATION ASPC
    EXTRAPOLATION_ORDER 3
    EPS_DEFAULT 1.0E-12
   &CDFT 
     TYPE_OF_CONSTRAINT Hirshfeld 
     ATOMIC_CHARGES T 
     STRENGTH -0.024332255424 
     TARGET 1 
    &ATOM_GROUP 
      ATOMS 71  
      COEFF 1 
      CONSTRAINT_TYPE  MAGNETIZATION  
    &END ATOM_GROUP
    &OUTER_SCF 
      TYPE CDFT_CONSTRAINT 
      EPS_SCF 1E-3 
      OPTIMIZER SECANT
      STEP_SIZE 0.05 
    &END OUTER_SCF
    &HIRSHFELD_CONSTRAINT
      SHAPE_FUNCTION DENSITY 
    &END HIRSHFELD_CONSTRAINT
   &END CDFT
  &END QS
  &SCF
    EPS_SCF 5.0E-7
    MAX_SCF 100
    SCF_GUESS RESTART
   &OUTER_SCF
     MAX_SCF 20
     OPTIMIZER DIIS
     STEP_SIZE 0.15
     EPS_SCF 5.0E-7
   &END OUTER_SCF
   &OT T
     MINIMIZER CG
     ALGORITHM IRAC
     PRECONDITIONER FULL_ALL
     ENERGY_GAP 0.001
   &END OT
  &END SCF
  &PRINT
   &E_DENSITY_CUBE
     STRIDE 3 
   &END E_DENSITY_CUBE
  &END PRINT
  &XC
   &XC_FUNCTIONAL PBE
   &END XC_FUNCTIONAL
   &VDW_POTENTIAL
     POTENTIAL_TYPE PAIR_POTENTIAL
    &PAIR_POTENTIAL
      TYPE DFTD3
      PARAMETER_FILE_NAME dftd3.dat
      REFERENCE_FUNCTIONAL PBE
    &END PAIR_POTENTIAL
   &END VDW_POTENTIAL
   &XC_GRID
     XC_SMOOTH_RHO NN10
     XC_DERIV SPLINE2_smooth
   &END XC_GRID
  &END XC
 &END DFT
&END FORCE_EVAL
