&GLOBAL
  RUN_TYPE  GEO_OPT 
  PRINT_LEVEL MEDIUM
&END GLOBAL

&MOTION
 &GEO_OPT
   MAX_ITER  1000
   MAX_DR    1.E-3
   RMS_DR    3.E-4
   MAX_FORCE 1.E-4
   RMS_FORCE 3.E-5
   OPTIMIZER BFGS
 &END GEO_OPT
 &CONSTRAINT
  &FIXED_ATOMS
    COMPONENTS_TO_FIX  XYZ
    LIST 1..192
  &END FIXED_ATOMS
 &END CONSTRAINT
&END MOTION

&FORCE_EVAL
 &DFT
   BASIS_SET_FILE_NAME  BASIS_SET 
   POTENTIAL_FILE_NAME  GTH_POTENTIALS
   WFN_RESTART_FILE_NAME PROJECT-18-RESTART.wfn
UKS T
  MULTIPLICITY 2
  CHARGE -1
  PLUS_U_METHOD LOWDIN
 &MGRID
   NGRIDS 5
  &RS_GRID
  &END RS_GRID
   CUTOFF 500
   COMMENSURATE
  &END MGRID
  &QS
    EXTRAPOLATION ASPC
    EXTRAPOLATION_ORDER 3
    EPS_DEFAULT 1.0E-12
   &CDFT 
     TYPE_OF_CONSTRAINT Hirshfeld 
     ATOMIC_CHARGES T 
     STRENGTH -0.027810367311  
     TARGET 1 
    &ATOM_GROUP 
      ATOMS 40  
      COEFF 1 
      CONSTRAINT_TYPE  MAGNETIZATION  
     &END ATOM_GROUP
     &OUTER_SCF 
       TYPE CDFT_CONSTRAINT 
       EPS_SCF 1E-3 
       OPTIMIZER SECANT
       STEP_SIZE 0.05 
     &END OUTER_SCF
     &HIRSHFELD_CONSTRAINT
       SHAPE_FUNCTION DENSITY 
     &END HIRSHFELD_CONSTRAINT
    &END CDFT
  &END QS
  &SCF
    EPS_SCF 5.0E-7
    MAX_SCF 100
    SCF_GUESS RESTART 
   &OUTER_SCF
     MAX_SCF 20
     OPTIMIZER DIIS
     STEP_SIZE 0.15
     EPS_SCF 5.0E-7
   &END OUTER_SCF
   &OT T 
    MINIMIZER CG
    ALGORITHM IRAC
    PRECONDITIONER FULL_ALL
    ENERGY_GAP 0.001
   &END OT
  &END SCF
  &PRINT
   &E_DENSITY_CUBE
     STRIDE 3 
   &END E_DENSITY_CUBE
  &END PRINT
  &XC
   &XC_FUNCTIONAL PBE
   &END XC_FUNCTIONAL
   &VDW_POTENTIAL
     POTENTIAL_TYPE PAIR_POTENTIAL
    &PAIR_POTENTIAL
      TYPE DFTD3
      PARAMETER_FILE_NAME dftd3.dat
      REFERENCE_FUNCTIONAL PBE
    &END PAIR_POTENTIAL
   &END VDW_POTENTIAL
   &XC_GRID
     XC_SMOOTH_RHO NN10 
     XC_DERIV SPLINE2_smooth
   &END XC_GRID
  &END XC
 &END DFT
 &SUBSYS
  &CELL
   ABC 12.9938   11.8360   25.0000
  &END CELL
&COORD
 Ti         1.6236531561        1.4795031789        7.8082676005
 Ti         4.8726749324        1.4901807664       17.2065870106
 Ti         4.8726748994        1.4797182679       10.6589365540
 Ti         1.6207856555        1.4787792471       14.3911204093
 Ti         4.8726749342        0.0006476002        7.3415613898
 Ti         1.6287151099       -0.0019891366       17.7019089115
 Ti         1.6235724633        0.0003914177       11.0235876435
 Ti         4.8726748251        0.0087066756       13.9904278339
 Ti         8.1216967021        1.4795031730        7.8082675585
 Ti        11.3695749163        1.4853420908       17.1992421969
 Ti        11.3695748882        1.4798831603       10.6423295979
 Ti         8.1245641308        1.4787792003       14.3911203806
 Ti        11.3695749468       -0.0000337502        7.3272996658
 Ti         8.1166347114       -0.0019891179       17.7019088138
 Ti         8.1217773411        0.0003914097       11.0235875732
 Ti        11.3695748227        0.0003154139       13.9861344326
 Ti         1.6233628551        4.4384994707        7.8085400570
 Ti         4.8726749674        4.4384997282       17.2159907969
 Ti         4.8726748931        4.4384995284       10.6577933200
 Ti         1.6278940528        4.4384994470       14.3971247526
 Ti         4.8726749281        2.9594651690        7.3423234839
 Ti         1.6522424075        2.9517162769       17.7119108503
 Ti         1.6238460131        2.9593485428       11.0250439215
 Ti         4.8726748765        2.9740831533       14.0060547109
 Ti         8.1219870048        4.4384994618        7.8085400249
 Ti        11.3695749639        4.4384996816       17.2017340199
 Ti        11.3695748985        4.4384995003       10.6424108353
 Ti         8.1174556327        4.4384994008       14.3971247738
 Ti        11.3695749440        2.9590358459        7.3274987149
 Ti         8.0931075229        2.9517163370       17.7119107416
 Ti         8.1215037853        2.9593485345       11.0250438902
 Ti        11.3695748486        2.9605525816       13.9910967103
 Ti         1.6236531583        7.3974957761        7.8082675948
 Ti         4.8726749464        7.3868187707       17.2065869221
 Ti         4.8726749043        7.3972808008       10.6589365165
 Ti         1.6207856099        7.3982195987       14.3911204308
 Ti         4.8726749300        5.9175337838        7.3423234837
 Ti         1.6522424255        5.9252832457       17.7119108372
 Ti         1.6238460193        5.9176503192       11.0250439133
 Ti         4.8726748897        5.9029158342       14.0060545131
 Ti         8.1216967032        7.3974957633        7.8082675599
 Ti        11.3695749359        7.3916572884       17.1992422145
 Ti        11.3695748904        7.3971158212       10.6423296074
 Ti         8.1245641519        7.3982195746       14.3911204608
 Ti        11.3695749455        5.9179634145        7.3274987218
 Ti         8.0931075457        5.9252832896       17.7119107964
 Ti         8.1215037849        5.9176502991       11.0250438940
 Ti        11.3695748457        5.9164461217       13.9910969296
 Ti         1.6233058018       10.3564994852        7.8079372835
 Ti         4.8726748738       10.3564997462       17.1995275292
 Ti         4.8726748906       10.3564995371       10.6560046779
 Ti         1.6223328307       10.3564993352       14.3865381197
 Ti         4.8726749350        8.8763513569        7.3415613724
 Ti         1.6287151030        8.8789886877       17.7019089241
 Ti         1.6235724661        8.8766074389       11.0235876388
 Ti         4.8726748141        8.8682923179       13.9904278184
 Ti         8.1220440641       10.3564994748        7.8079372393
 Ti        11.3695749014       10.3564996793       17.1951868120
 Ti        11.3695749172       10.3564995038       10.6421694933
 Ti         8.1230167273       10.3564992843       14.3865379250
 Ti        11.3695749465        8.8770330257        7.3272996674
 Ti         8.1166347460        8.8789887254       17.7019089069
 Ti         8.1217773421        8.8766074033       11.0235875840
 Ti        11.3695748325        8.8766834175       13.9861343232
  O         1.6226471299        1.4792788317        9.6038469297
  O         1.6077146868        1.4704523371       16.2071968107
  O         4.8726747103        1.4799575639       15.3836574710
  O         4.8726749190        1.4785580918        8.8195868377
  O         4.8726748887        1.4797493662        6.2668704317
  O         4.8726748444        1.4778433736       12.8270875138
  O         1.5894598884        1.4661824176       18.7807406406
  O         1.6155727432        1.4792601900       12.1626032917
  O         0.4026359588        0.0001277913        7.4493165169
  O         3.5906149557       -0.0008650925       10.8348601435
  O         2.8429109050       -0.0000866800        7.4529281662
  O         6.1547347967       -0.0008651048       10.8348601589
  O         6.1008351247       -0.0202613651       17.5662591802
  O         2.8962759089       -0.0006897553       14.1713440843
  O         3.6445146663       -0.0202613894       17.5662591518
  O         0.3415406681       -0.0002855854       14.1662281470
  O         8.1227026264        1.4792788192        9.6038468762
  O         8.1376352420        1.4704522418       16.2071967476
  O        11.3695748158        1.4794737026       15.3913651377
  O        11.3695749271        1.4797702606        8.8084265571
  O        11.3695749551        1.4795774262        6.2521186592
  O        11.3695746409        1.4832211489       12.8305224300
  O         8.1558897601        1.4661824770       18.7807405387
  O         8.1297769908        1.4792601625       12.1626032100
  O         6.9024389538       -0.0000866803        7.4529281112
  O        10.0912931746        0.0003209640       10.8295775381
  O         9.3427139189        0.0001277849        7.4493165321
  O        12.6478565864        0.0003210053       10.8295775939
  O        12.5869987569       -0.0018715150       17.5498308350
  O         9.4038089799       -0.0002856668       14.1662280680
  O        10.1521510634       -0.0018715017       17.5498309044
  O         6.8490737214       -0.0006897565       14.1713440081
  O         1.6224412523        4.4384994721        9.6041501259
  O         1.6480916319        4.4384996023       16.2158853964
  O         4.8726749234        4.4384994073       15.3440291476
  O         4.8726749044        4.4384995238        8.8179867700
  O         4.8726748888        4.4384994420        6.2666454410
  O         4.8726747486        4.4384994944       12.8119739659
  O         1.6308327628        4.4384997580       18.7777422651
  O         1.6200173256        4.4384993837       12.1631406917
  O         0.4027179650        2.9590128225        7.4496354293
  O         3.5905893061        2.9580082371       10.8327717016
  O         2.8429537082        2.9590157826        7.4531096332
  O         6.1547604434        2.9580082395       10.8327717019
  O         6.1276728130        2.8618693943       17.5945609943
  O         2.8944117770        2.9542705051       14.1680361591
  O         3.6176771728        2.8618692879       17.5945616465
  O         0.3439656183        2.9633326816       14.1761024982
  O         8.1229085126        4.4384994582        9.6041500812
  O         8.0972582041        4.4384995346       16.2158853506
  O        11.3695748863        4.4384994166       15.3926195079
  O        11.3695749422        4.4384994927        8.8083838042
  O        11.3695749553        4.4384996195        6.2521310871
  O        11.3695746804        4.4384993885       12.8308236409
  O         8.1145171278        4.4384998211       18.7777422385
  O         8.1253322704        4.4384993679       12.1631406416
  O         6.9023961442        2.9590157796        7.4531095917
  O        10.0908603324        2.9594256643       10.8297521049
  O         9.3426319117        2.9590128193        7.4496354361
  O        12.6482894160        2.9594256494       10.8297521639
  O        12.5902770113        2.9599692275       17.5497492355
  O         9.4013840049        2.9633326860       14.1761025401
  O        10.1488728321        2.9599692802       17.5497492405
  O         6.8509379043        2.9542704075       14.1680361178
  O         1.6226471257        7.3977201241        9.6038469283
  O         1.6077145458        7.4065469435       16.2071968021
  O         4.8726747073        7.3970416508       15.3836574468
  O         4.8726749232        7.3984409364        8.8195868158
  O         4.8726748879        7.3972495334        6.2668704224
  O         4.8726748508        7.3991555322       12.8270874257
  O         1.5894599974        7.4108170679       18.7807406295
  O         1.6155727180        7.3977385808       12.1626033021
  O         0.4027179653        5.9179862241        7.4496354319
  O         3.5905893006        5.9189907976       10.8327716925
  O         2.8429537073        5.9179832347        7.4531096294
  O         6.1547604529        5.9189907866       10.8327716945
  O         6.1276728158        6.0151300915       17.5945608908
  O         2.8944118030        5.9227284953       14.1680362156
  O         3.6176771952        6.0151301980       17.5945614976
  O         0.3439656222        5.9136661700       14.1761026404
  O         8.1227026292        7.3977201093        9.6038468858
  O         8.1376352626        7.4065470254       16.2071968392
  O        11.3695748488        7.3975253621       15.3913651733
  O        11.3695749247        7.3972287324        8.8084265732
  O        11.3695749546        7.3974218130        6.2521186771
  O        11.3695746245        7.3937773255       12.8305226344
  O         8.1558899174        7.4108170960       18.7807406502
  O         8.1297770305        7.3977385650       12.1626032440
  O         6.9023961462        5.9179832270        7.4531095889
  O        10.0908603306        5.9175732774       10.8297520940
  O         9.3426319111        5.9179862157        7.4496354421
  O        12.6482894211        5.9175733000       10.8297521527
  O        12.5902770234        5.9170301737       17.5497492470
  O         9.4013839769        5.9136661428       14.1761027465
  O        10.1488728363        5.9170301361       17.5497491581
  O         6.8509378637        5.9227285468       14.1680361928
  O         1.6218707885       10.3564994783        9.6034962510
  O         1.6088440483       10.3564995555       16.2037250006
  O         4.8726748686       10.3564995436       15.3892098347
  O         4.8726749219       10.3564995143        8.8192878780
  O         4.8726748974       10.3564994549        6.2672009596
  O         4.8726746503       10.3564994177       12.8324977383
  O         1.6041127547       10.3564997558       18.7752016083
  O         1.6177588125       10.3564993751       12.1619546606
  O         0.4026359616        8.8768712633        7.4493165092
  O         3.5906149602        8.8778641130       10.8348601412
  O         2.8429109071        8.8770857015        7.4529281728
  O         6.1547347996        8.8778641254       10.8348601592
  O         6.1008351277        8.8972609514       17.5662591944
  O         2.8962758958        8.8776886481       14.1713440342
  O         3.6445146626        8.8972609582       17.5662590551
  O         0.3415406287        8.8772844865       14.1662280928
  O         8.1234789573       10.3564994577        9.6034961900
  O         8.1365056697       10.3564995332       16.2037248743
  O        11.3695748233       10.3564994439       15.3874911816
  O        11.3695749526       10.3564994821        8.8080449503
  O        11.3695749499       10.3564996283        6.2518862826
  O        11.3695748672       10.3564994723       12.8270758879
  O         8.1412371295       10.3564997999       18.7752015490
  O         8.1275908233       10.3564993560       12.1619545869
  O         6.9024389545        8.8770856856        7.4529281156
  O        10.0912931907        8.8766779609       10.8295775923
  O         9.3427139181        8.8768712559        7.4493165256
  O        12.6478565733        8.8766779272       10.8295776447
  O        12.5869987653        8.8788709459       17.5498308887
  O         9.4038090023        8.8772844892       14.1662280551
  O        10.1521510825        8.8788709316       17.5498308976
  O         6.8490737206        8.8776885960       14.1713439612
&END COORD
  &KIND H
    BASIS_SET   DZVP-MOLOPT-SR-GTH
    POTENTIAL GTH-PBE-q1
  &END KIND
  &KIND Ti
    BASIS_SET  DZVP-MOLOPT-SR-GTH
    POTENTIAL GTH-PBE-q12
   &DFT_PLUS_U ON
     L 2
     U_MINUS_J [eV] 4.2
     U_RAMPING [eV] 0
   &END DFT_PLUS_U
  &END KIND
  &KIND O
    BASIS_SET  DZVP-MOLOPT-SR-GTH
    POTENTIAL GTH-PBE-q6
  &END KIND
  &KIND C
    BASIS_SET  DZVP-MOLOPT-SR-GTH
    POTENTIAL GTH-PBE-q4
  &END KIND
 &END SUBSYS
&END FORCE_EVAL
