&GLOBAL
  RUN_TYPE  GEO_OPT
  PRINT_LEVEL MEDIUM
&END GLOBAL

&MOTION
 &GEO_OPT
   MAX_ITER  1000
   MAX_DR    1.E-3
   RMS_DR    3.E-4
   MAX_FORCE 1.E-4
   RMS_FORCE 3.E-5
   OPTIMIZER BFGS
 &END GEO_OPT
 &CONSTRAINT
  &FIXED_ATOMS
    COMPONENTS_TO_FIX  XYZ
    LIST 1..195
  &END FIXED_ATOMS
 &END CONSTRAINT
&END MOTION

&FORCE_EVAL
 &DFT
   BASIS_SET_FILE_NAME  BASIS_SET 
   POTENTIAL_FILE_NAME  GTH_POTENTIALS
   WFN_RESTART_FILE_NAME PROJECT-18-RESTART.wfn
UKS T
  MULTIPLICITY 2
  CHARGE -1
  PLUS_U_METHOD LOWDIN
 &MGRID
   NGRIDS 5
  &RS_GRID
  &END RS_GRID
   CUTOFF 500
   COMMENSURATE
  &END MGRID
  &QS
    EXTRAPOLATION ASPC
    EXTRAPOLATION_ORDER 3
    EPS_DEFAULT 1.0E-12
   &CDFT 
     TYPE_OF_CONSTRAINT Hirshfeld 
     ATOMIC_CHARGES T 
     STRENGTH -0.028073345572  
     TARGET 1
    &ATOM_GROUP 
      ATOMS 40  
      COEFF 1 
      CONSTRAINT_TYPE  MAGNETIZATION  
     &END ATOM_GROUP
     &OUTER_SCF 
       TYPE CDFT_CONSTRAINT 
       EPS_SCF 1E-3 
       OPTIMIZER SECANT
       STEP_SIZE 0.05 
     &END OUTER_SCF
     &HIRSHFELD_CONSTRAINT
       SHAPE_FUNCTION DENSITY 
     &END HIRSHFELD_CONSTRAINT
    &END CDFT
  &END QS
  &SCF
    EPS_SCF 5.0E-7
    MAX_SCF 100
    SCF_GUESS RESTART 
   &OUTER_SCF
     MAX_SCF 20
     OPTIMIZER DIIS
     STEP_SIZE 0.15
     EPS_SCF 5.0E-7
   &END OUTER_SCF
   &OT T 
    MINIMIZER CG
    ALGORITHM IRAC
    PRECONDITIONER FULL_ALL
    ENERGY_GAP 0.001
   &END OT
  &END SCF
  &PRINT
   &E_DENSITY_CUBE
     STRIDE 3 
   &END E_DENSITY_CUBE
  &END PRINT
  &XC
   &XC_FUNCTIONAL PBE
   &END XC_FUNCTIONAL
   &VDW_POTENTIAL
     POTENTIAL_TYPE PAIR_POTENTIAL
    &PAIR_POTENTIAL
      TYPE DFTD3
      PARAMETER_FILE_NAME dftd3.dat
      REFERENCE_FUNCTIONAL PBE
    &END PAIR_POTENTIAL
   &END VDW_POTENTIAL
   &XC_GRID
     XC_SMOOTH_RHO NN10 
     XC_DERIV SPLINE2_smooth
   &END XC_GRID
  &END XC
 &END DFT
 &SUBSYS
  &CELL
   ABC 12.9938   11.8360   25.0000
  &END CELL
&COORD
 Ti         1.5788853678        1.5106313071        7.8122903009
 Ti         4.8367110155        1.5137205734       17.1887499848
 Ti         4.8282657830        1.5128153496       10.6680454993
 Ti         1.5847180764        1.5092281342       14.3942511999
 Ti         4.8264303730        0.0321426453        7.3428975956
 Ti         1.6023485308        0.0282361757       17.7036307359
 Ti         1.5794447454        0.0313524057       11.0268597153
 Ti         4.8307154818        0.0472695133       13.9700039920
 Ti         8.0764428741        1.5106044035        7.8104688069
 Ti        11.3369201729        1.5127909359       17.2054195961
 Ti        11.3254282424        1.5105278953       10.6414781521
 Ti         8.0926403578        1.5073644937       14.3806172756
 Ti        11.3242752489        0.0310105557        7.3264219741
 Ti         8.0775961987        0.0236725268       17.6983894496
 Ti         8.0752625871        0.0305605358       11.0243819414
 Ti        11.3330222647        0.0298989272       13.9883041978
 Ti         1.5782441693        4.4693881939        7.8131777430
 Ti         4.8546171530        4.4637451473       17.3486980429
 Ti         4.8285691957        4.4689206849       10.6652523271
 Ti         1.5951187972        4.4694692819       14.4053912070
 Ti         4.8264606342        2.9898617453        7.3478705725
 Ti         1.6266217437        2.9806269958       17.7129706389
 Ti         1.5801575848        2.9905976609       11.0303209558
 Ti         4.8378839321        3.0214650912       14.0515612885
 Ti         8.0771965499        4.4693813803        7.8109284255
 Ti        11.3454140951        4.4695305411       17.2070489492
 Ti        11.3261566705        4.4692024507       10.6417435903
 Ti         8.0910919815        4.4688680385       14.3900906054
 Ti        11.3242846014        2.9900365922        7.3267021891
 Ti         8.0713907006        2.9648963777       17.6763300188
 Ti         8.0758596347        2.9902545645       11.0265921799
 Ti        11.3372506919        2.9906276052       13.9924182310
 Ti         1.5789343233        7.4281402305        7.8122587185
 Ti         4.8376231282        7.4299186999       17.1783143188
 Ti         4.8285714800        7.4255947667       10.6675357398
 Ti         1.5881175539        7.4283602961       14.3937484572
 Ti         4.8264834453        5.9492069617        7.3476081702
 Ti         1.6284482972        5.9586967983       17.7146383572
 Ti         1.5803952671        5.9475366902       11.0305327829
 Ti         4.8400501803        5.9140622978       14.0455128626
 Ti         8.0764432038        7.4281929977        7.8102405939
 Ti        11.3372684159        7.4251395683       17.2056112125
 Ti        11.3256785118        7.4279038672       10.6414488948
 Ti         8.0946890090        7.4307868827       14.3791441433
 Ti        11.3243129121        5.9490666926        7.3267069398
 Ti         8.0700332507        5.9723222014       17.6717603094
 Ti         8.0760389183        5.9478437887       11.0263755559
 Ti        11.3380874794        5.9478549323       13.9923568533
 Ti         1.5784028470       10.3874268910        7.8107104062
 Ti         4.8383219708       10.3891434898       17.1805909465
 Ti         4.8278854438       10.3873964209       10.6551657676
 Ti         1.5858561060       10.3869022751       14.3894824563
 Ti         4.8264581934        8.9068460164        7.3426271706
 Ti         1.6027543763        8.9113596743       17.7041985642
 Ti         1.5796504163        8.9069722501       11.0264912894
 Ti         4.8316440503        8.8925736841       13.9649736947
 Ti         8.0770512086       10.3874515025        7.8088437790
 Ti        11.3356912586       10.3871474271       17.1991915943
 Ti        11.3254509131       10.3872138693       10.6411846586
 Ti         8.0797375392       10.3869581290       14.3849317490
 Ti        11.3243001936        8.9080758380        7.3264202366
 Ti         8.0795024014        8.9136004919       17.6980480573
 Ti         8.0754571297        8.9078351032       11.0238057713
 Ti        11.3339570959        8.9080446600       13.9886223534
  O         1.5814255680        1.5107224062        9.6078245512
  O         1.5760628396        1.4989565822       16.2102665121
  O         4.8248394144        1.4927645570       15.3679871086
  O         4.8277799441        1.5101734924        8.8236050354
  O         4.8288399523        1.5118400395        6.2681839788
  O         4.8379495508        1.5213104275       12.8283090718
  O         1.5567591036        1.4963851452       18.7829742733
  O         1.5747081504        1.5104394286       12.1680315752
  O         0.3581424808        0.0310982918        7.4518112432
  O         3.5476652943        0.0309774123       10.8368507607
  O         2.7978660416        0.0311122403        7.4534298235
  O         6.1132185662        0.0309153186       10.8318879906
  O         6.0708245023        0.0044047285       17.5563197901
  O         2.8561752786        0.0281890641       14.1648387048
  O         3.6106060262        0.0004935694       17.5635773330
  O         0.3026755191        0.0298686654       14.1749588985
  O         8.0817955665        1.5106531112        9.6066704960
  O         8.1375528851        1.4939547688       16.2021800210
  O        11.3269245683        1.5106549675       15.3981922113
  O        11.3238183788        1.5105236866        8.8068997696
  O        11.3264164142        1.5105684105        6.2509730899
  O        11.3367353281        1.5121634373       12.8319911945
  O         8.1126834618        1.5039268097       18.7710861114
  O         8.0832634291        1.5100993974       12.1666481336
  O         6.8582057921        0.0309914293        7.4554457083
  O        10.0481606272        0.0307961190       10.8308873342
  O         9.2977412838        0.0310360027        7.4473998688
  O        12.6058708200        0.0311480179       10.8255037323
  O        12.5536478399        0.0303777926       17.5499897583
  O         9.3680004976        0.0250605523       14.1602884804
  O        10.1195536429        0.0270928140       17.5634063462
  O         6.8146777686        0.0312258659       14.1741451429
  O         1.5805661108        4.4693193889        9.6089219184
  O         1.6129144864        4.4736682500       16.2249117137
  O         4.8341419749        4.4721224348       15.3869049231
  O         4.8280009721        4.4691904930        8.8242162750
  O         4.8288470564        4.4693388094        6.2711939500
  O         4.8389418414        4.4669107924       12.8337830502
  O         1.6148201124        4.4698627304       18.7801362817
  O         1.5765231861        4.4689739616       12.1705409949
  O         0.3581904180        2.9899138397        7.4522929101
  O         3.5474984277        2.9910155004       10.8372115605
  O         2.7977364479        2.9902560624        7.4555262634
  O         6.1141893423        2.9907161446       10.8323480646
  O         6.1283094605        2.8462546325       17.4814134526
  O         2.8543264665        2.9866388683       14.1776040163
  O         3.5826676054        2.8684855147       17.5729810569
  O         0.3057765227        2.9931473669       14.1885535801
  O         8.0828141709        4.4692371777        9.6074168661
  O         8.1189399955        4.4691139465       16.2097139986
  O        11.3291122871        4.4694873701       15.3983633632
  O        11.3242582101        4.4692850801        8.8070943846
  O        11.3263893045        4.4694446621        6.2511003685
  O        11.3387471542        4.4691365588       12.8323671143
  O         7.9437406776        4.4705422493       18.7741901750
  O         8.0805010146        4.4691301411       12.1682844980
  O         6.8584223050        2.9901402180        7.4571881067
  O        10.0481991943        2.9902026503       10.8316571416
  O         9.2977745988        2.9898894323        7.4479109303
  O        12.6061842346        2.9897703078       10.8268226664
  O        12.5586785060        2.9896946117       17.5528495776
  O         9.3700365880        2.9905519727       14.1657668738
  O        10.1166330767        2.9980015353       17.5805448515
  O         6.8206939221        2.9854557079       14.1876965448
  O         1.5816297684        7.4276783091        9.6077973471
  O         1.5888258031        7.4345057723       16.2124570545
  O         4.8161389610        7.4416711358       15.3625241343
  O         4.8279003541        7.4281979925        8.8230154805
  O         4.8287999599        7.4270126317        6.2677679269
  O         4.8389834779        7.4175448419       12.8248775858
  O         1.5560417387        7.4432883537       18.7861935606
  O         1.5747202522        7.4281382690       12.1678688791
  O         0.3582185805        5.9489430681        7.4522230330
  O         3.5476763429        5.9470512341       10.8373880265
  O         2.7977583556        5.9485294175        7.4553759955
  O         6.1142077027        5.9472076171       10.8323760603
  O         6.1294057348        6.0987737949       17.4745161110
  O         2.8541582279        5.9506432236       14.1723665447
  O         3.5979683816        6.0675118089       17.6256997721
  O         0.3061188128        5.9467851892       14.1888892118
  O         8.0816568419        7.4277397940        9.6064125314
  O         8.1412530894        7.4459704429       16.2006741270
  O        11.3263919897        7.4273388927       15.3982035920
  O        11.3239454932        7.4279467500        8.8068484524
  O        11.3264035723        7.4283419583        6.2509278256
  O        11.3371523061        7.4262750124       12.8318052550
  O         8.1067157380        7.4322720569       18.7720896189
  O         8.0834519616        7.4283895076       12.1661458288
  O         6.8584300350        5.9485297888        7.4569161345
  O        10.0482605718        5.9482468228       10.8316131951
  O         9.2977867318        5.9488494128        7.4478574075
  O        12.6063180583        5.9485750821       10.8268738453
  O        12.5590391354        5.9497275056       17.5557845315
  O         9.3703541312        5.9473321613       14.1650035919
  O        10.1162699441        5.9407831376       17.5795446586
  O         6.8209223436        5.9535822775       14.1861803439
  O         1.5816060172       10.3874082818        9.6063236496
  O         1.5794751556       10.3863838479       16.2073325156
  O         4.8353205311       10.3860363488       15.3740453267
  O         4.8275491010       10.3873588659        8.8178347436
  O         4.8288924376       10.3874738452        6.2667821627
  O         4.8366008372       10.3879058164       12.8149162209
  O         1.5685897435       10.3870062137       18.7788752330
  O         1.5742329558       10.3870833972       12.1651915234
  O         0.3581686728        8.9077227350        7.4518464135
  O         3.5477869901        8.9075995823       10.8364769167
  O         2.7978978302        8.9077301953        7.4533955054
  O         6.1133339115        8.9078023694       10.8312810901
  O         6.0694112255        8.9295467574       17.5566201747
  O         2.8562903686        8.9104892060       14.1625742555
  O         3.6114202053        8.9377330596       17.5655599609
  O         0.3035415610        8.9062543935       14.1773526734
  O         8.0819350388       10.3874323921        9.6052576131
  O         8.1017857119       10.3859105127       16.2083108848
  O        11.3286772062       10.3868784730       15.3916534327
  O        11.3239673357       10.3873128996        8.8063385638
  O        11.3264084099       10.3874317507        6.2506816019
  O        11.3374662712       10.3868444161       12.8284815830
  O         8.1042898067       10.3858391991       18.7773299913
  O         8.0797810055       10.3870365795       12.1642549039
  O         6.8582046208        8.9077899326        7.4552686012
  O        10.0482181239        8.9075533047       10.8305083736
  O         9.2977553383        8.9077250687        7.4474351273
  O        12.6059750010        8.9073189713       10.8252906759
  O        12.5552624514        8.9067693514       17.5466436946
  O         9.3683091815        8.9134220619       14.1588029156
  O        10.1204804552        8.9102790952       17.5674410457
  O         6.8138294372        8.9057966429       14.1744932559
  O         5.3184461566        4.4153982719       19.5337546817
  H         5.0358044536        5.2159111627       20.0075969725
  H         6.3228147998        4.4500189867       19.4930138032
&END COORD
  &KIND H
    BASIS_SET   DZVP-MOLOPT-SR-GTH
    POTENTIAL GTH-PBE-q1
  &END KIND
  &KIND Ti
    BASIS_SET  DZVP-MOLOPT-SR-GTH
    POTENTIAL GTH-PBE-q12
   &DFT_PLUS_U ON
     L 2
     U_MINUS_J [eV] 4.2
     U_RAMPING [eV] 0
   &END DFT_PLUS_U
  &END KIND
  &KIND O
    BASIS_SET  DZVP-MOLOPT-SR-GTH
    POTENTIAL GTH-PBE-q6
  &END KIND
  &KIND C
    BASIS_SET  DZVP-MOLOPT-SR-GTH
    POTENTIAL GTH-PBE-q4
  &END KIND
 &END SUBSYS
&END FORCE_EVAL
