&GLOBAL
  RUN_TYPE  GEO_OPT 
  PRINT_LEVEL MEDIUM
&END GLOBAL

&MOTION
 &GEO_OPT
   MAX_ITER  1000
   MAX_DR    1.E-3
   RMS_DR    3.E-4
   MAX_FORCE 1.E-4
   RMS_FORCE 3.E-5
   OPTIMIZER BFGS
 &END GEO_OPT
 &CONSTRAINT
  &FIXED_ATOMS
    COMPONENTS_TO_FIX  XYZ
    LIST 1..192
  &END FIXED_ATOMS
 &END CONSTRAINT
&END MOTION

&FORCE_EVAL
 &DFT
   BASIS_SET_FILE_NAME  BASIS_SET 
   POTENTIAL_FILE_NAME  GTH_POTENTIALS
   WFN_RESTART_FILE_NAME PROJECT-44-RESTART.wfn
UKS T
  MULTIPLICITY 2
  CHARGE -1
  PLUS_U_METHOD LOWDIN
 &MGRID
   NGRIDS 5
  &RS_GRID
  &END RS_GRID
   CUTOFF 500
   COMMENSURATE
  &END MGRID
  &QS
    EXTRAPOLATION ASPC
    EXTRAPOLATION_ORDER 3
    EPS_DEFAULT 1.0E-12
   &CDFT 
     TYPE_OF_CONSTRAINT Hirshfeld 
     ATOMIC_CHARGES T 
     STRENGTH -0.027810367311  
     TARGET 1 
    &ATOM_GROUP 
      ATOMS 40  
      COEFF 1 
      CONSTRAINT_TYPE  MAGNETIZATION  
     &END ATOM_GROUP
     &OUTER_SCF 
       TYPE CDFT_CONSTRAINT 
       EPS_SCF 1E-3 
       OPTIMIZER SECANT
       STEP_SIZE 0.05 
     &END OUTER_SCF
     &HIRSHFELD_CONSTRAINT
       SHAPE_FUNCTION DENSITY 
     &END HIRSHFELD_CONSTRAINT
    &END CDFT
  &END QS
  &SCF
    EPS_SCF 5.0E-7
    MAX_SCF 100
    SCF_GUESS RESTART 
   &OUTER_SCF
     MAX_SCF 20
     OPTIMIZER DIIS
     STEP_SIZE 0.15
     EPS_SCF 5.0E-7
   &END OUTER_SCF
   &OT T 
    MINIMIZER CG
    ALGORITHM IRAC
    PRECONDITIONER FULL_ALL
    ENERGY_GAP 0.001
   &END OT
  &END SCF
  &PRINT
   &E_DENSITY_CUBE
     STRIDE 3 
   &END E_DENSITY_CUBE
  &END PRINT
  &XC
   &XC_FUNCTIONAL PBE
   &END XC_FUNCTIONAL
   &VDW_POTENTIAL
     POTENTIAL_TYPE PAIR_POTENTIAL
    &PAIR_POTENTIAL
      TYPE DFTD3
      PARAMETER_FILE_NAME dftd3.dat
      REFERENCE_FUNCTIONAL PBE
    &END PAIR_POTENTIAL
   &END VDW_POTENTIAL
   &XC_GRID
     XC_SMOOTH_RHO NN10 
     XC_DERIV SPLINE2_smooth
   &END XC_GRID
  &END XC
 &END DFT
 &SUBSYS
  &CELL
   ABC 12.9938   11.8360   25.0000
  &END CELL
&COORD
 Ti         1.6242151489        1.4794910772        7.8195982223
 Ti         4.8724272292        1.4794855922       17.2182904470
 Ti         4.8713180501        1.4794908420       10.6557861931
 Ti         1.6242225826        1.4794867995       14.4112732432
 Ti         4.8722104195       -0.0002404869        7.3427479793
 Ti         1.6242229200       -0.0004787974       17.7216909370
 Ti         1.6242183641        0.0002494717       11.0388404973
 Ti         4.8768848842        0.0012131368       14.0032200915
 Ti         8.1211062238        1.4794855255        7.8132421907
 Ti        11.3698178717        1.4794859580       17.2182900136
 Ti        11.3709175462        1.4794907571       10.6557873849
 Ti         8.1211213582        1.4794892013       14.4077388185
 Ti        11.3700186456       -0.0002398059        7.3427492370
 Ti         8.1211229036       -0.0085286909       17.7148180415
 Ti         8.1211168678        0.0016840552       11.0313057436
 Ti        11.3653591790        0.0012131802       14.0032198416
 Ti         1.6242158933        4.4388886106        7.8207890481
 Ti         4.8675249365        4.4367102081       17.2182278734
 Ti         4.8701907987        4.4370310282       10.6594333136
 Ti         1.6242210084        4.4443589589       14.4089500844
 Ti         4.8722115522        2.9592204407        7.3427480005
 Ti         1.6242225713        2.9594526988       17.7216902917
 Ti         1.6242184551        2.9587291622       11.0388389825
 Ti         4.8768845270        2.9577654737       14.0032203481
 Ti         8.1211170917        4.4393954631        7.8168638519
 Ti        11.3747189470        4.4367102376       17.2182277583
 Ti        11.3720447878        4.4370307700       10.6594345010
 Ti         8.1211213463        4.4549405604       14.4092663125
 Ti        11.3700175203        2.9592196914        7.3427492277
 Ti         8.1211226448        2.9675012735       17.7148188353
 Ti         8.1211169604        2.9572898839       11.0313065607
 Ti        11.3653596907        2.9577656198       14.0032199235
 Ti         1.6242164465        7.3974909109        7.8216018066
 Ti         4.8768258948        7.3974857874       17.2120525683
 Ti         4.8724725997        7.3974905119       10.6603495429
 Ti         1.6242200434        7.3974876836       14.4069182060
 Ti         4.8723214465        5.9180194165        7.3445780769
 Ti         1.6242219126        5.9200734264       17.7125333860
 Ti         1.6242176264        5.9179735721       11.0408127446
 Ti         4.8935132183        5.9127359744       13.9996967120
 Ti         8.1211156699        7.3974887206        7.8217847721
 Ti        11.3654166473        7.3974861950       17.2120523925
 Ti        11.3697627229        7.3974903969       10.6603506717
 Ti         8.1211166152        7.3974810451       14.3853369090
 Ti        11.3699118129        5.9180192222        7.3445790679
 Ti         8.1211229463        5.9416689338       17.7144921080
 Ti         8.1211167767        5.9156921824       11.0400251468
 Ti        11.3487272045        5.9127364901       13.9996972632
 Ti         1.6242159103       10.3560932048        7.8207902657
 Ti         4.8675249531       10.3582613409       17.2182275520
 Ti         4.8701905732       10.3579503935       10.6594334739
 Ti         1.6242209133       10.3506149128       14.4089507423
 Ti         4.8723211419        8.8769607608        7.3445781139
 Ti         1.6242222394        8.8749008263       17.7125327249
 Ti         1.6242175738        8.8770034586       11.0408135512
 Ti         4.8935155884        8.8822422548       13.9996965685
 Ti         8.1211170985       10.3555806700        7.8168637271
 Ti        11.3747202012       10.3582620435       17.2182278845
 Ti        11.3720448165       10.3579505438       10.6594347204
 Ti         8.1211212884       10.3400359024       14.4092649321
 Ti        11.3699121162        8.8769608652        7.3445791011
 Ti         8.1211233349        8.8533019113       17.7144923452
 Ti         8.1211167720        8.8792805888       11.0400247741
 Ti        11.3487247709        8.8822421584       13.9996970907
  O         1.6242155502        1.4794889150        9.6144935268
  O         1.6242228267        1.4794874885       16.2423232604
  O         4.8545879665        1.4794874487       15.4188114531
  O         4.8735981739        1.4794907516        8.8206022817
  O         4.8713483270        1.4794895534        6.2682206780
  O         4.8581820820        1.4794892887       12.8436235169
  O         1.6242212235        1.4794868055       18.7957323864
  O         1.6242183953        1.4794896666       12.1775972711
  O         0.4042720588       -0.0005506957        7.4603718266
  O         3.5899743307        0.0013042984       10.8358258134
  O         2.8441572994       -0.0005506504        7.4603724026
  O         6.1498553132        0.0006231283       10.8402146953
  O         6.0910491533        0.0025617673       17.5644924652
  O         2.8976108056        0.0047651913       14.1974521446
  O         3.6525739611       -0.0000801707       17.5995382073
  O         0.3508319652        0.0047667616       14.1974557798
  O         8.1211154801        1.4794877586        9.6077145524
  O         8.1211239660        1.4794837881       16.2265034133
  O        11.3876544935        1.4794876343       15.4188105512
  O        11.3686325754        1.4794907235        8.8206036486
  O        11.3708765691        1.4794895017        6.2682215709
  O        11.3840620986        1.4794893070       12.8436237073
  O         8.1211222851        1.4794855944       18.7827182185
  O         8.1211047637        1.4794853933       12.1661398637
  O         6.9008382080       -0.0009102395        7.4573637405
  O        10.0923765668        0.0006232238       10.8402208499
  O         9.3413871122       -0.0009056750        7.4573646265
  O        12.6522590801        0.0013047167       10.8358242665
  O        12.5896708405       -0.0000798387       17.5995377525
  O         9.4078747339        0.0160328138       14.1850038812
  O        10.1511957245        0.0025624867       17.5644936386
  O         6.8343666843        0.0160333759       14.1850117514
  O         1.6242150926        4.4405272657        9.6164626854
  O         1.6242224900        4.4305924584       16.2380218018
  O         4.8487136312        4.4258518156       15.4209683084
  O         4.8724422706        4.4389133748        8.8230818020
  O         4.8721489511        4.4393833053        6.2690071248
  O         4.8451326591        4.4256215826       12.8397083199
  O         1.6242216311        4.4432618629       18.7915359256
  O         1.6242135656        4.4381107844       12.1802919973
  O         0.4042718290        2.9595321314        7.4603715397
  O         3.5899746651        2.9576768743       10.8358250615
  O         2.8441575363        2.9595321186        7.4603721581
  O         6.1498555429        2.9583571022       10.8402152962
  O         6.0910487929        2.9564045775       17.5644951469
  O         2.8976121779        2.9542066318       14.1974508201
  O         3.6525736000        2.9590514804       17.5995377883
  O         0.3508307039        2.9542051152       14.1974542322
  O         8.1211163425        4.4420493861        9.6122161225
  O         8.1211232832        4.4371479562       16.2352881214
  O        11.3935275140        4.4258512219       15.4209678694
  O        11.3697877428        4.4389126010        8.8230827854
  O        11.3700757505        4.4393829299        6.2690084401
  O        11.3971112152        4.4256220836       12.8397086582
  O         8.1211232850        4.4360727529       18.7853671381
  O         8.1211063388        4.4315889026       12.1678767370
  O         6.9008390349        2.9598869189        7.4573636125
  O        10.0923764813        2.9583568364       10.8402213966
  O         9.3413862889        2.9598823422        7.4573644770
  O        12.6522588745        2.9576762808       10.8358235962
  O        12.5896705900        2.9590520643       17.5995371692
  O         9.4078749945        2.9429459120       14.1850101095
  O        10.1511955576        2.9564043110       17.5644960717
  O         6.8343665095        2.9429452773       14.1850177447
  O         1.6242148095        7.3974887053        9.6174634606
  O         1.6242226006        7.3974875906       16.2356688758
  O         4.8908760560        7.3974883285       15.4110077119
  O         4.8751385028        7.3974907149        8.8246891526
  O         4.8711789258        7.3974900335        6.2700647085
  O         4.8716722159        7.3974885163       12.8450344197
  O         1.6242213077        7.3974867667       18.7901103352
  O         1.6242086445        7.3974863390       12.1825642146
  O         0.4042448917        5.9184213730        7.4612455422
  O         3.5917857424        5.9195157070       10.8415110582
  O         2.8441856840        5.9184214419        7.4612460346
  O         6.1520890377        5.9162762543       10.8463958126
  O         6.0835974858        5.9132882579       17.5956918651
  O         2.8969079371        5.9157461191       14.2049508128
  O         3.6468761406        5.9236128281       17.5645280995
  O         0.3515322525        5.9157455952       14.2049567871
  O         8.1211130546        7.3974863030        9.6188424778
  O         8.1211319827        7.3974821921       16.2907464235
  O        11.3513650328        7.3974887204       15.4110080704
  O        11.3670921299        7.3974907170        8.8246902009
  O        11.3710483650        7.3974900020        6.2700658240
  O        11.3705691123        7.3974886001       12.8450346526
  O         8.1211145607        7.3974836397       18.8240393915
  O         8.1211093407        7.3974841339       12.1882316345
  O         6.9011493674        5.9191155994        7.4595741252
  O        10.0901427360        5.9162757871       10.8463990301
  O         9.3410813129        5.9191160854        7.4595756585
  O        12.6504465584        5.9195151259       10.8415084838
  O        12.5953671333        5.9236132433       17.5645263496
  O         9.4483498356        5.8275081058       14.1781863153
  O        10.1586471523        5.9132882470       17.5956957709
  O         6.7938896579        5.8275068458       14.1781930807
  O         1.6242150979       10.3544507392        9.6164640046
  O         1.6242226661       10.3643813293       16.2380234363
  O         4.8487129190       10.3691248161       15.4209677702
  O         4.8724414957       10.3560682717        8.8230820237
  O         4.8721488468       10.3555962918        6.2690069113
  O         4.8451322908       10.3693568674       12.8397083654
  O         1.6242217453       10.3517120374       18.7915366364
  O         1.6242133672       10.3568643460       12.1802922910
  O         0.4042449614        8.8765603830        7.4612459942
  O         3.5917855060        8.8754647997       10.8415116027
  O         2.8441856002        8.8765603023        7.4612464486
  O         6.1520889430        8.8787036571       10.8463956132
  O         6.0835988119        8.8816811370       17.5956910303
  O         2.8969080334        8.8792267403       14.2049516544
  O         3.6468780245        8.8713567335       17.5645344041
  O         0.3515320054        8.8792271829       14.2049578738
  O         8.1211163642       10.3529252334        9.6122159293
  O         8.1211239772       10.3578264989       16.2352862170
  O        11.3935282528       10.3691255840       15.4209674891
  O        11.3697882484       10.3560689073        8.8230830931
  O        11.3700758732       10.3555966202        6.2690082648
  O        11.3971115979       10.3693566067       12.8397086486
  O         8.1211225242       10.3588972271       18.7853657118
  O         8.1211059837       10.3633819910       12.1678740478
  O         6.9011491096        8.8758631321        7.4595744562
  O        10.0901425793        8.8787037092       10.8463990335
  O         9.3410815483        8.8758626419        7.4595759542
  O        12.6504466128        8.8754653175       10.8415090013
  O        12.5953663700        8.8713566380       17.5645319433
  O         9.4483480072        8.9674656101       14.1781859680
  O        10.1586468476        8.8816829463       17.5956968246
  O         6.7938914027        8.9674668590       14.1781928107
&END COORD
  &KIND H
    BASIS_SET   DZVP-MOLOPT-SR-GTH
    POTENTIAL GTH-PBE-q1
  &END KIND
  &KIND Ti
    BASIS_SET  DZVP-MOLOPT-SR-GTH
    POTENTIAL GTH-PBE-q12
   &DFT_PLUS_U ON
     L 2
     U_MINUS_J [eV] 4.2
     U_RAMPING [eV] 0
   &END DFT_PLUS_U
  &END KIND
  &KIND O
    BASIS_SET  DZVP-MOLOPT-SR-GTH
    POTENTIAL GTH-PBE-q6
  &END KIND
  &KIND C
    BASIS_SET  DZVP-MOLOPT-SR-GTH
    POTENTIAL GTH-PBE-q4
  &END KIND
 &END SUBSYS
&END FORCE_EVAL
