&GLOBAL
  RUN_TYPE  GEO_OPT 
  PRINT_LEVEL MEDIUM
&END GLOBAL

&MOTION
 &GEO_OPT
   MAX_ITER  1000
   MAX_DR    1.E-3
   RMS_DR    3.E-4
   MAX_FORCE 1.E-4
   RMS_FORCE 3.E-5
   OPTIMIZER BFGS
 &END GEO_OPT
 &CONSTRAINT
  &FIXED_ATOMS
    COMPONENTS_TO_FIX  XYZ
    LIST 1..195
  &END FIXED_ATOMS
 &END CONSTRAINT
&END MOTION

&FORCE_EVAL
 &DFT
   BASIS_SET_FILE_NAME  BASIS_SET 
   POTENTIAL_FILE_NAME  GTH_POTENTIALS
   WFN_RESTART_FILE_NAME PROJECT-19-RESTART.wfn
UKS T
  MULTIPLICITY 2
  CHARGE -1
  PLUS_U_METHOD LOWDIN
 &MGRID
   NGRIDS 5
  &RS_GRID
  &END RS_GRID
   CUTOFF 500
   COMMENSURATE
  &END MGRID
  &QS
    EXTRAPOLATION ASPC
    EXTRAPOLATION_ORDER 3
    EPS_DEFAULT 1.0E-12
   &CDFT 
     TYPE_OF_CONSTRAINT Hirshfeld 
     ATOMIC_CHARGES T 
     STRENGTH -0.028073345572 
     TARGET 1 
    &ATOM_GROUP 
      ATOMS 40  
      COEFF 1 
      CONSTRAINT_TYPE  MAGNETIZATION 
     &END ATOM_GROUP
     &OUTER_SCF 
       TYPE CDFT_CONSTRAINT 
       EPS_SCF 1E-3 
       OPTIMIZER SECANT
       STEP_SIZE 0.05 
     &END OUTER_SCF
     &HIRSHFELD_CONSTRAINT
       SHAPE_FUNCTION DENSITY 
     &END HIRSHFELD_CONSTRAINT
    &END CDFT
  &END QS
  &SCF
    EPS_SCF 5.0E-7
    MAX_SCF 100
    SCF_GUESS RESTART 
   &OUTER_SCF
     MAX_SCF 20
     OPTIMIZER DIIS
     STEP_SIZE 0.15
     EPS_SCF 5.0E-7
   &END OUTER_SCF
   &OT T 
    MINIMIZER CG
    ALGORITHM IRAC
    PRECONDITIONER FULL_ALL
    ENERGY_GAP 0.001
   &END OT
  &END SCF
  &PRINT
   &E_DENSITY_CUBE
     STRIDE 3 
   &END E_DENSITY_CUBE
  &END PRINT
  &XC
   &XC_FUNCTIONAL PBE
   &END XC_FUNCTIONAL
   &VDW_POTENTIAL
     POTENTIAL_TYPE PAIR_POTENTIAL
    &PAIR_POTENTIAL
      TYPE DFTD3
      PARAMETER_FILE_NAME dftd3.dat
      REFERENCE_FUNCTIONAL PBE
    &END PAIR_POTENTIAL
   &END VDW_POTENTIAL
   &XC_GRID
     XC_SMOOTH_RHO NN10 
     XC_DERIV SPLINE2_smooth
   &END XC_GRID
  &END XC
 &END DFT
 &SUBSYS
  &CELL
   ABC 12.9938   11.8360   25.0000
  &END CELL
&COORD
 Ti         1.5752043015        1.5076522706        7.8107516206
 Ti         4.8488009310        1.5045938270       17.1871487952
 Ti         4.8307324827        1.5281976737       10.6246449832
 Ti         1.5905262187        1.5079900635       14.3683128771
 Ti         4.8272440495        0.0388376930        7.3113153933
 Ti         1.6064056918        0.0288623923       17.6842625507
 Ti         1.5864032434        0.0294080836       11.0249291346
 Ti         4.8360469435        0.0360638360       13.9703258930
 Ti         8.0823554514        1.5076205250        7.8079834538
 Ti        11.3461030761        1.5067708671       17.2085045162
 Ti        11.3280429332        1.5160689444       10.6197090191
 Ti         8.0971003158        1.5062257223       14.3515115140
 Ti        11.3254775039        0.0293562501        7.3077136221
 Ti         8.0933960026        0.0244914496       17.6775690101
 Ti         8.0716369530        0.0283522412       11.0208857124
 Ti        11.3389095825        0.0284027241       13.9882328851
 Ti         1.5836519660        4.4681594899        7.8174549242
 Ti         4.8646234780        4.4594752981       17.2989004725
 Ti         4.8314157452        4.4676661022       10.6532441168
 Ti         1.5982333300        4.4686286810       14.3717893024
 Ti         4.8273167076        3.0116292077        7.3252969652
 Ti         1.6077520202        2.9872273259       17.6831689787
 Ti         1.6056059661        2.9844782866       11.0305340507
 Ti         4.8436772150        3.0023545643       14.0237146910
 Ti         8.0741640233        4.4681802839        7.8139060450
 Ti        11.3537169476        4.4690325654       17.2063793704
 Ti        11.3298196248        4.4682912064       10.6213640278
 Ti         8.1004829440        4.4682753475       14.3563191339
 Ti        11.3255770485        2.9898654178        7.3122948883
 Ti         8.1105020580        2.9709697232       17.6453154557
 Ti         8.0580462896        2.9843361547       11.0250428847
 Ti        11.3431018768        2.9884171997       13.9854188203
 Ti         1.5752705118        7.4286519354        7.8107784778
 Ti         4.8515883774        7.4315978795       17.1772281250
 Ti         4.8309742171        7.4078941833       10.6246151079
 Ti         1.5934532952        7.4279604794       14.3677309409
 Ti         4.8273360196        5.9240359499        7.3252726752
 Ti         1.6091947888        5.9496439853       17.6847362352
 Ti         1.6058740696        5.9518322983       11.0307363435
 Ti         4.8455806916        5.9319944344       14.0186066820
 Ti         8.0823696225        7.4287592801        7.8078135711
 Ti        11.3459706497        7.4292429263       17.2087012838
 Ti        11.3282371533        7.4205140989       10.6197200511
 Ti         8.0990830411        7.4305645205       14.3504031893
 Ti        11.3255879763        5.9462245306        7.3123036338
 Ti         8.1064431226        5.9639619923       17.6418102299
 Ti         8.0581765643        5.9520312236       11.0248470761
 Ti        11.3438015687        5.9483518847       13.9853482039
 Ti         1.5813626411       10.3861984024        7.8090409590
 Ti         4.8438373269       10.3863104147       17.1895039787
 Ti         4.8286525735       10.3862812588       10.6189968595
 Ti         1.5906763444       10.3859789614       14.3709751633
 Ti         4.8272637630        8.8967449286        7.3112994689
 Ti         1.6082100111        8.9077789612       17.6849855971
 Ti         1.5866071843        8.9072136824       11.0245193294
 Ti         4.8370075662        8.9009177006       13.9656092512
 Ti         8.0762827057       10.3862401719        7.8060753207
 Ti        11.3446893810       10.3860036966       17.2078133926
 Ti        11.3265778395       10.3862767472       10.6179806468
 Ti         8.0861371309       10.3863038258       14.3645909252
 Ti        11.3254916124        8.9067244090        7.3077605372
 Ti         8.0952813646        8.9103942820       17.6773527365
 Ti         8.0718259725        8.9083715071       11.0203774848
 Ti        11.3396572117        8.9077243412       13.9885833836
  O         1.5609430079        1.4974654682        9.6073021455
  O         1.5976977526        1.5077287652       16.2053596906
  O         4.8259247106        1.4928221935       15.3940724268
  O         4.8288809793        1.5047640481        8.7959357169
  O         4.8297678810        1.5108543685        6.2458631911
  O         4.8428996919        1.5191767726       12.8567535193
  O         1.6006290864        1.5100415023       18.7598399031
  O         1.5550616212        1.4974540591       12.1894405556
  O         0.3580885929        0.0281454301        7.4396802230
  O         3.5456481625        0.0170967536       10.8435715644
  O         2.7964087815        0.0290280156        7.4494168139
  O         6.1185936477        0.0166041174       10.8369711211
  O         6.0717757774        0.0259851782       17.5499153309
  O         2.8652018940        0.0273714634       14.1735716659
  O         3.6256409139        0.0210165823       17.5624592746
  O         0.3071584059        0.0281606520       14.1983773419
  O         8.1052870546        1.4973099932        9.6053474001
  O         8.1303642857        1.5028967162       16.1960475689
  O        11.3309525277        1.5119692982       15.4139687443
  O        11.3248450598        1.5056777599        8.7902245161
  O        11.3276974684        1.5113930537        6.2348451449
  O        11.3421918801        1.5073823822       12.8482681107
  O         8.0857679440        1.5174150494       18.7461445793
  O         8.1032968575        1.4967491570       12.1869776264
  O         6.8615343573        0.0289397547        7.4515267440
  O        10.0533868971        0.0255860916       10.8345211338
  O         9.2996482531        0.0282671580        7.4337250391
  O        12.6040575952        0.0255890737       10.8278438359
  O        12.5644087134        0.0324357542       17.5609970376
  O         9.3726136347        0.0237526822       14.1790724730
  O        10.1255350029        0.0293102308       17.5765385321
  O         6.8140754686        0.0305424087       14.1858012254
  O         1.5923902208        4.4682063897        9.6179153890
  O         1.6046507048        4.4728340876       16.2090082175
  O         4.8316807366        4.4726153318       15.4343217407
  O         4.8292953803        4.4681092612        8.7494340369
  O         4.8293852740        4.4679656454        6.2167198992
  O         4.8437480033        4.4659338390       12.8524670492
  O         1.6111028587        4.4682462594       18.7603578820
  O         1.5832247073        4.4679483696       12.1865225566
  O         0.3569665488        2.9920335376        7.4540624414
  O         3.5026534426        2.9005079574       10.8497478894
  O         2.7933899782        2.9860360818        7.4435305812
  O         6.1622117214        2.9005128526       10.8431324655
  O         6.1014201337        2.9453853249       17.4363783213
  O         2.8671010602        2.9871815431       14.1817543450
  O         3.6322012737        2.9734283332       17.5469320171
  O         0.3106327285        2.9906031888       14.1941599602
  O         8.0747368398        4.4682002994        9.6153767074
  O         8.1505634800        4.4685125096       16.1919567304
  O        11.3328505817        4.4685382164       15.4113392423
  O        11.3251494834        4.4683289191        8.7909809365
  O        11.3275378705        4.4681837712        6.2350873215
  O        11.3436738288        4.4682106508       12.8464516645
  O         7.9594359760        4.4689975880       18.7504507114
  O         8.0780988266        4.4681459758       12.1828751142
  O         6.8648452835        2.9860330846        7.4446147585
  O        10.0565288702        2.9865844358       10.8306010340
  O         9.3010732692        2.9920353351        7.4486611585
  O        12.6016053256        2.9866398583       10.8243755719
  O        12.5676173230        2.9889055536       17.5611479776
  O         9.3744337398        2.9868714606       14.1663568586
  O        10.1256918008        2.9972369263       17.5939225836
  O         6.8162334559        2.9872477462       14.1963059714
  O         1.5612445950        7.4387060345        9.6073484987
  O         1.6094776485        7.4245543289       16.2074452217
  O         4.8183470807        7.4397790133       15.3876089764
  O         4.8289005057        7.4315674187        8.7956680656
  O         4.8297773161        7.4251771352        6.2456800018
  O         4.8438970796        7.4176925274       12.8528027231
  O         1.6001271283        7.4273373736       18.7637206729
  O         1.5550176919        7.4392933694       12.1891132272
  O         0.3569759783        5.9442442505        7.4541133867
  O         3.5028754912        6.0351934706       10.8499192810
  O         2.7933836629        5.9501064615        7.4433643410
  O         6.1622204845        6.0350762330       10.8431400382
  O         6.1038597037        5.9993845061       17.4334606433
  O         2.8667503946        5.9485462666       14.1761246306
  O         3.6459473600        5.9614610418       17.6000425744
  O         0.3108068775        5.9475015068       14.1944342607
  O         8.1051817346        7.4389779930        9.6051434353
  O         8.1344139910        7.4357772389       16.1946755984
  O        11.3304718588        7.4242703621       15.4138473293
  O        11.3248033341        7.4309925464        8.7902136443
  O        11.3277856496        7.4249817660        6.2348448010
  O        11.3424770020        7.4292660235       12.8479810279
  O         8.0814585814        7.4174869091       18.7476405348
  O         8.1037663918        7.4399065819       12.1864155270
  O         6.8648675208        5.9502226946        7.4444179593
  O        10.0565938329        5.9499009187       10.8305403755
  O         9.3010947951        5.9443524663        7.4485828613
  O        12.6017287451        5.9498349184       10.8243751111
  O        12.5678988620        5.9486829786       17.5640751168
  O         9.3748215472        5.9493263403       14.1656528969
  O        10.1253234488        5.9396520838       17.5923901338
  O         6.8167871218        5.9502152012       14.1943303204
  O         1.5760600669       10.3862854144        9.6080939700
  O         1.5982582673       10.3855080942       16.2072714885
  O         4.8384155039       10.3848581405       15.3982674221
  O         4.8281925651       10.3863266285        8.7994394551
  O         4.8298518376       10.3860175971        6.2438761935
  O         4.8411748683       10.3870813180       12.8382014058
  O         1.5927121856       10.3859657407       18.7621700977
  O         1.5683420460       10.3862075872       12.1831853726
  O         0.3580837936        8.9081244809        7.4398258351
  O         3.5457624907        8.9193192121       10.8433450536
  O         2.7964204230        8.9071394426        7.4494122481
  O         6.1186992453        8.9199441125       10.8365168831
  O         6.0713561490        8.9065408935       17.5495184036
  O         2.8652634087        8.9094549717       14.1712903057
  O         3.6269985967        8.9151088634       17.5656893258
  O         0.3079032827        8.9063746500       14.2005185344
  O         8.0910818589       10.3863509824        9.6061992966
  O         8.0997948339       10.3855283108       16.2068861753
  O        11.3328588003       10.3860544569       15.4134721655
  O        11.3243359055       10.3864427842        8.7878137413
  O        11.3277100385       10.3861628768        6.2317190573
  O        11.3424889052       10.3859921934       12.8490194926
  O         8.0942794850       10.3851158915       18.7592317758
  O         8.0884042425       10.3861820152       12.1813422530
  O         6.8615494752        8.9073866805        7.4514383462
  O        10.0534568672        8.9109777717       10.8341501012
  O         9.2996812423        8.9081819225        7.4337293647
  O        12.6041114125        8.9110259472       10.8275308669
  O        12.5659207855        8.9029343013       17.5578340362
  O         9.3730228811        8.9133045649       14.1776299581
  O        10.1264066268        8.9067569943       17.5800335499
  O         6.8134782010        8.9051629890       14.1858729823
  O         5.3248350314        4.3951327022       19.5124297917
  H         5.0247591950        5.1868738673       19.9903902860
  H         6.3276001945        4.4444411047       19.4796508617
&END COORD
  &KIND H
    BASIS_SET   DZVP-MOLOPT-SR-GTH
    POTENTIAL GTH-PBE-q1
  &END KIND
  &KIND Ti
    BASIS_SET  DZVP-MOLOPT-SR-GTH
    POTENTIAL GTH-PBE-q12
   &DFT_PLUS_U ON
     L 2
     U_MINUS_J [eV] 4.2
     U_RAMPING [eV] 0
   &END DFT_PLUS_U
  &END KIND
  &KIND O
    BASIS_SET  DZVP-MOLOPT-SR-GTH
    POTENTIAL GTH-PBE-q6
  &END KIND
  &KIND C
    BASIS_SET  DZVP-MOLOPT-SR-GTH
    POTENTIAL GTH-PBE-q4
  &END KIND
 &END SUBSYS
&END FORCE_EVAL
