@SET RESTART_1            EXTERNAL_RESTART_WFN_1
@SET WFN_FILE_1           EXTERNAL_WFNRESTART_1

@SET RESTART_2            EXTERNAL_RESTART_WFN_2
@SET WFN_FILE_2           EXTERNAL_WFNRESTART_2

@SET DFT_FILE             dft-common-params.inc

@SET PROJECT_NAME         EXTERNAL_PROJNAME
@SET XYZFILE              EXTERNAL_XYZNAME

@SET PW_CUTOFF            300
@SET PW_REL_CUTOFF        50

@SET CONSTR_ACTIVE        EXTERNAL_CONSTR_ACTIVE

@SET CONSTR_STR_1         EXTERNAL_CONSTR_STR1
@SET CONSTR_TARGET_1      EXTERNAL_CONSTR_TARGET1

@SET CONSTR_STR_2         EXTERNAL_CONSTR_STR2
@SET CONSTR_TARGET_2      EXTERNAL_CONSTR_TARGET2

@SET HIRSHFELD_SHAPEFN    EXTERNAL_SHAPEFN
@SET GAUSSIAN_SHAPE       EXTERNAL_GAUSSIAN

&GLOBAL
  PROJECT ${PROJECT_NAME}
  RUN_TYPE ENERGY
  PRINT_LEVEL MEDIUM
&END GLOBAL
&MULTIPLE_FORCE_EVALS
  FORCE_EVAL_ORDER 2 3
  MULTIPLE_SUBSYS F
&END
&FORCE_EVAL
  METHOD MIXED
  &MIXED
    MIXING_TYPE MIXED_CDFT
    NGROUPS  1
    &MIXED_CDFT
      ! Calculate mixed CDFT properties every COUPLING step
      COUPLING     1
      ! Settings determining how forces are mixed
      FORCE_STATES 1 2
      LAMBDA       1.0
      ! Orthogonalize CDFT states using Lowdin's method
      ! in addition to standard method
      LOWDIN      TRUE
      ! Configuration interaction?
      CI          FALSE
      ! Turn on printing
      &PRINT
        &PROGRAM_RUN_INFO ON
        &END
      &END PRINT
    &END MIXED_CDFT
  &END MIXED
  @include subsys.inc
&END FORCE_EVAL
# Zn+ Zn
&FORCE_EVAL
  @SET WFN_FILE       ${WFN_FILE_1}
  @SET RESTART        ${RESTART_1}
  @SET NAME           ${PROJECT_NAME}-state1
  @SET CONSTR_TARGET   ${CONSTR_TARGET_1}
  @SET CONSTR_STR      ${CONSTR_STR_1}
  METHOD QS
  @include ${DFT_FILE}
&END FORCE_EVAL
# Zn Zn+
&FORCE_EVAL
  @SET WFN_FILE       ${WFN_FILE_2}
  @SET RESTART        ${RESTART_2}
  @SET NAME           ${PROJECT_NAME}-state2
  @SET CONSTR_TARGET   ${CONSTR_TARGET_2}
  @SET CONSTR_STR      ${CONSTR_STR_2}
  METHOD QS
  @include ${DFT_FILE}
&END FORCE_EVAL