&GLOBAL
  RUN_TYPE  GEO_OPT
  PRINT_LEVEL MEDIUM
&END GLOBAL

&MOTION
 &GEO_OPT
   MAX_ITER  1000
   MAX_DR    1.E-3
   RMS_DR    3.E-4
   MAX_FORCE 1.E-4
   RMS_FORCE 3.E-5
   OPTIMIZER BFGS
 &END GEO_OPT
 &CONSTRAINT
  &FIXED_ATOMS
    COMPONENTS_TO_FIX  XYZ
    LIST 1..195
  &END FIXED_ATOMS
 &END CONSTRAINT
&END MOTION

&FORCE_EVAL
 &DFT
   BASIS_SET_FILE_NAME  BASIS_SET 
   POTENTIAL_FILE_NAME  GTH_POTENTIALS
   WFN_RESTART_FILE_NAME PROJECT-44-RESTART.wfn
UKS T
  MULTIPLICITY 2
  CHARGE -1
  PLUS_U_METHOD LOWDIN
 &MGRID
   NGRIDS 5
  &RS_GRID
  &END RS_GRID
   CUTOFF 500
   COMMENSURATE
  &END MGRID
  &QS
    EXTRAPOLATION ASPC
    EXTRAPOLATION_ORDER 3
    EPS_DEFAULT 1.0E-12
   &CDFT 
     TYPE_OF_CONSTRAINT Hirshfeld 
     ATOMIC_CHARGES T 
     STRENGTH -0.028073345572  
     TARGET 1 
    &ATOM_GROUP 
      ATOMS 40  
      COEFF 1 
      CONSTRAINT_TYPE  MAGNETIZATION 
     &END ATOM_GROUP
     &OUTER_SCF 
       TYPE CDFT_CONSTRAINT 
       EPS_SCF 1E-3 
       OPTIMIZER SECANT
       STEP_SIZE 0.05 
     &END OUTER_SCF
     &HIRSHFELD_CONSTRAINT
       SHAPE_FUNCTION DENSITY 
     &END HIRSHFELD_CONSTRAINT
    &END CDFT
  &END QS
  &SCF
    EPS_SCF 5.0E-7
    MAX_SCF 100
    SCF_GUESS RESTART 
   &OUTER_SCF
     MAX_SCF 20
     OPTIMIZER DIIS
     STEP_SIZE 0.15
     EPS_SCF 5.0E-7
   &END OUTER_SCF
   &OT T 
    MINIMIZER CG
    ALGORITHM IRAC
    PRECONDITIONER FULL_ALL
    ENERGY_GAP 0.001
   &END OT
  &END SCF
  &PRINT
   &E_DENSITY_CUBE
     STRIDE 3 
   &END E_DENSITY_CUBE
  &END PRINT
  &XC
   &XC_FUNCTIONAL PBE
   &END XC_FUNCTIONAL
   &VDW_POTENTIAL
     POTENTIAL_TYPE PAIR_POTENTIAL
    &PAIR_POTENTIAL
      TYPE DFTD3
      PARAMETER_FILE_NAME dftd3.dat
      REFERENCE_FUNCTIONAL PBE
    &END PAIR_POTENTIAL
   &END VDW_POTENTIAL
   &XC_GRID
     XC_SMOOTH_RHO NN10 
     XC_DERIV SPLINE2_smooth
   &END XC_GRID
  &END XC
 &END DFT
 &SUBSYS
  &CELL
   ABC 12.9938   11.8360   25.0000
  &END CELL
&COORD
 Ti         1.5889677276        1.4828263794        7.8721430140
 Ti         4.8459863947        1.4744957574       17.2476290368
 Ti         4.8376767206        1.4835429793       10.7135454078
 Ti         1.5916896698        1.4797624095       14.4543179002
 Ti         4.8363708415        0.0048406104        7.3940035741
 Ti         1.6026499687       -0.0021290674       17.7634634007
 Ti         1.5885481956        0.0024992131       11.0879930348
 Ti         4.8337813796        0.0103081913       14.0320279470
 Ti         8.0860284689        1.4827660221        7.8650542050
 Ti        11.3395063467        1.4763067418       17.2728767104
 Ti        11.3342760987        1.4814088166       10.7019507563
 Ti         8.0943843170        1.4775020708       14.4524161348
 Ti        11.3351164669        0.0044071633        7.3879912174
 Ti         8.0878600304       -0.0201230494       17.7716200243
 Ti         8.0848868103        0.0027338743       11.0834298021
 Ti        11.3375405192        0.0003432127       14.0532312253
 Ti         1.5885176148        4.4419439655        7.8738421517
 Ti         4.8643272844        4.4285414237       17.3662282056
 Ti         4.8354424762        4.4387424162       10.7141574528
 Ti         1.5971771492        4.4505435408       14.4571776207
 Ti         4.8364124153        2.9630596517        7.3968752991
 Ti         1.6064497015        2.9570968815       17.7651171921
 Ti         1.5892532144        2.9604183752       11.0897256229
 Ti         4.8411456139        2.9776780104       14.0912206446
 Ti         8.0864945610        4.4410214498        7.8620154335
 Ti        11.3566956978        4.4369591692       17.2729300657
 Ti        11.3372752906        4.4390332185       10.7058258279
 Ti         8.1002869587        4.4367017267       14.4572762755
 Ti        11.3351189147        2.9635117862        7.3879043200
 Ti         8.1076022616        2.9565660668       17.7457410445
 Ti         8.0857910370        2.9587714441       11.0836872482
 Ti        11.3432570558        2.9587092886       14.0522637469
 Ti         1.5889236217        7.4004410283        7.8744975535
 Ti         4.8492964595        7.4011725081       17.2324300356
 Ti         4.8374985909        7.3971656505       10.7178656880
 Ti         1.5934845684        7.3971451254       14.4502835340
 Ti         4.8368422176        5.9228905135        7.3988156554
 Ti         1.6067316348        5.9206169845       17.7624210522
 Ti         1.5892770536        5.9186018026       11.0921587933
 Ti         4.8726332190        5.8955555018       14.0819637095
 Ti         8.0859584022        7.4005011768        7.8613695726
 Ti        11.3398643550        7.4002675572       17.2693902024
 Ti        11.3343244624        7.3994046413       10.7077652448
 Ti         8.0944650396        7.4003006120       14.3536087219
 Ti        11.3346348214        5.9223712950        7.3906608923
 Ti         8.1101942672        5.9827109795       17.7053441052
 Ti         8.0856314934        5.9123541762       11.0742409440
 Ti        11.3142796054        5.9139186390       14.0510601202
 Ti         1.5887364484       10.3593602420        7.8726059297
 Ti         4.8377171108       10.3574430898       17.2489321103
 Ti         4.8344635050       10.3598220265       10.7087688887
 Ti         1.5893022035       10.3456181552       14.4510453714
 Ti         4.8367946226        8.8812954256        7.3958861329
 Ti         1.6045269366        8.8760039380       17.7595266809
 Ti         1.5885060724        8.8784036613       11.0900319452
 Ti         4.8633535074        8.8765998416       14.0269036426
 Ti         8.0862730820       10.3602907010        7.8611005937
 Ti        11.3444976747       10.3579613709       17.2722948839
 Ti        11.3364205281       10.3597726645       10.7058254525
 Ti         8.0831827803       10.3573631506       14.4631566845
 Ti        11.3346368841        8.8816567451        7.3907793766
 Ti         8.0915637232        8.8370549852       17.7544728038
 Ti         8.0848772875        8.8858445776       11.0734903953
 Ti        11.3097752685        8.8832878903       14.0525701842
  O         1.5894835656        1.4822009148        9.6671709836
  O         1.5935721051        1.4774403224       16.2826600692
  O         4.8173848745        1.4605274991       15.4491008344
  O         4.8385361823        1.4825103850        8.8740914312
  O         4.8353449543        1.4841367789        6.3188462303
  O         4.8368098431        1.4927677685       12.8945671898
  O         1.5981664148        1.4785816942       18.8391916713
  O         1.5865860340        1.4814050491       12.2287658440
  O         0.3686300397        0.0029956897        7.5128170818
  O         3.5550035635        0.0049017984       10.8889351820
  O         2.8082291130        0.0031812912        7.5131120909
  O         6.1169839765        0.0031685959       10.8894692675
  O         6.0632054905       -0.0038127455       17.6100338550
  O         2.8623753656        0.0017259912       14.2303423719
  O         3.6193545238       -0.0096585179       17.6301277189
  O         0.3120693979        0.0046763605       14.2446106834
  O         8.0877742836        1.4820335478        9.6599789635
  O         8.1291290533        1.4696358057       16.2655566785
  O        11.3373620868        1.4810336391       15.4731709089
  O        11.3324395328        1.4820563603        8.8669956549
  O        11.3374635348        1.4832473582        6.3120172952
  O        11.3448976450        1.4793514700       12.8952044167
  O         8.0815330069        1.4859887552       18.8265347584
  O         8.0861186627        1.4810433024       12.2207971894
  O         6.8660489174        0.0038508253        7.5065096889
  O        10.0568689945        0.0024449537       10.8900206943
  O         9.3068324569        0.0037184701        7.5036100063
  O        12.6164465090        0.0040140465       10.8844115881
  O        12.5622581115        0.0042327602       17.6359960477
  O         9.3727675244        0.0027868184       14.2289063174
  O        10.1250457029       -0.0001143031       17.6352387238
  O         6.8084071706        0.0086320647       14.2370482404
  O         1.5887080030        4.4418428887        9.6695542394
  O         1.5987431575        4.4392809379       16.2871233103
  O         4.8170434376        4.4280055993       15.4952440449
  O         4.8370883314        4.4404836034        8.8769848350
  O         4.8356810483        4.4427802293        6.3222332413
  O         4.8261078270        4.4249161868       12.9026339744
  O         1.6076849629        4.4395752341       18.8393053282
  O         1.5868350579        4.4385261322       12.2311402725
  O         0.3686268855        2.9625321407        7.5126890547
  O         3.5551279591        2.9606133457       10.8902479331
  O         2.8081177296        2.9627974379        7.5144784336
  O         6.1180007483        2.9617272314       10.8902818030
  O         6.0947293430        2.9125879033       17.4931731726
  O         2.8628351257        2.9556599893       14.2428048800
  O         3.6266093091        2.9396219544       17.6182892632
  O         0.3141606794        2.9559700787       14.2472183700
  O         8.0886435589        4.4387719508        9.6575815158
  O         8.1530880885        4.4346202886       16.2702044235
  O        11.3504157029        4.4271335179       15.4744719006
  O        11.3341976005        4.4405511563        8.8696127735
  O        11.3370174291        4.4429840602        6.3134358288
  O        11.3584288332        4.4258522657       12.8916699177
  O         7.9436747961        4.4319652146       18.8269058972
  O         8.0862759798        4.4374362205       12.2167623285
  O         6.8662322488        2.9621410868        7.5076154389
  O        10.0571499300        2.9602725454       10.8903210767
  O         9.3069108184        2.9619028914        7.5035611145
  O        12.6165401769        2.9586564254       10.8853807010
  O        12.5664538581        2.9560361780       17.6354816712
  O         9.3761815216        2.9487700865       14.2227512750
  O        10.1265892318        2.9659858281       17.6585787505
  O         6.8121829032        2.9506229057       14.2530063013
  O         1.5894515112        7.3990693825        9.6702113785
  O         1.6043896900        7.3936602522       16.2833018884
  O         4.8259011011        7.4124732508       15.4366449682
  O         4.8389581158        7.3991855853        8.8773903990
  O         4.8355653281        7.4004852155        6.3210944753
  O         4.8458384458        7.3856756591       12.8912114186
  O         1.5981727848        7.3981735020       18.8408502374
  O         1.5866339891        7.3988796957       12.2307587490
  O         0.3686069827        5.9215910341        7.5141549799
  O         3.5562881376        5.9184106698       10.8953840508
  O         2.8081280047        5.9212719175        7.5156323065
  O         6.1183059434        5.9156429971       10.8917813102
  O         6.0917746928        5.9653992619       17.4985898149
  O         2.8613155276        5.9155800538       14.2427542072
  O         3.6382909928        5.9340152143       17.6575658604
  O         0.3157856851        5.9168708636       14.2521238767
  O         8.0876420681        7.3992422073        9.6544813916
  O         8.1399910619        7.4083774495       16.3633730074
  O        11.3235554422        7.3967123186       15.4689965292
  O        11.3320717784        7.3997435790        8.8716477304
  O        11.3371925717        7.4013328726        6.3152731120
  O        11.3369311162        7.3993885329       12.8963722822
  O         8.0760353967        7.3849554974       18.8774259922
  O         8.0871323083        7.3992531527       12.2020050225
  O         6.8661795001        5.9201938463        7.5069621451
  O        10.0570191096        5.9173081729       10.8923556510
  O         9.3069319889        5.9205372522        7.5032722445
  O        12.6153864035        5.9205140585       10.8912817963
  O        12.5699316084        5.9229842493       17.6228473799
  O         9.4124635725        5.8582359948       14.2189782064
  O        10.1337609059        5.9038446374       17.6737344672
  O         6.7788761608        5.8556743988       14.2426583463
  O         1.5900853227       10.3576646356        9.6682699026
  O         1.5915170308       10.3598209726       16.2803394041
  O         4.8203957377       10.3667577906       15.4536646812
  O         4.8367187244       10.3593901223        8.8717616075
  O         4.8357853955       10.3598070448        6.3187088014
  O         4.8224202350       10.3701397862       12.8740288444
  O         1.5903161909       10.3536097073       18.8379439589
  O         1.5847601852       10.3593042321       12.2280652948
  O         0.3686083575        8.8799498309        7.5143680379
  O         3.5562268429        8.8771535160       10.8939074085
  O         2.8082533671        8.8798365794        7.5143826471
  O         6.1172180667        8.8805720649       10.8906887278
  O         6.0583603658        8.8781077285       17.6234439322
  O         2.8609313596        8.8816743641       14.2333354497
  O         3.6181448091        8.8834395154       17.6179436975
  O         0.3141845470        8.8772537524       14.2517098183
  O         8.0872868294       10.3608190410        9.6567063466
  O         8.0951756203       10.3578814943       16.2817624439
  O        11.3500776229       10.3681487449       15.4734491944
  O        11.3339017752       10.3593627933        8.8695171409
  O        11.3370549918       10.3595550623        6.3134778945
  O        11.3570053875       10.3699727802       12.8914581088
  O         8.0905714574       10.3581510030       18.8351588557
  O         8.0853937037       10.3603218680       12.2148947289
  O         6.8659873554        8.8811581862        7.5059831192
  O        10.0567340730        8.8812110927       10.8916058467
  O         9.3068562529        8.8811899148        7.5034399272
  O        12.6153114135        8.8780623906       10.8900649691
  O        12.5681115539        8.8695629595       17.6150528419
  O         9.4079842057        8.9447375528       14.2247471400
  O        10.1346405320        8.8831334395       17.6633896125
  O         6.7715216453        8.9390659626       14.2290974121
  O         5.3325865666        4.3638328117       19.5701577519
  H         5.0428388328        5.1614646172       20.0444879009
  H         6.3399805280        4.4105301214       19.5241930875
&END COORD
  &KIND H
    BASIS_SET   DZVP-MOLOPT-SR-GTH
    POTENTIAL GTH-PBE-q1
  &END KIND
  &KIND Ti
    BASIS_SET  DZVP-MOLOPT-SR-GTH
    POTENTIAL GTH-PBE-q12
   &DFT_PLUS_U ON
     L 2
     U_MINUS_J [eV] 4.2
     U_RAMPING [eV] 0
   &END DFT_PLUS_U
  &END KIND
  &KIND O
    BASIS_SET  DZVP-MOLOPT-SR-GTH
    POTENTIAL GTH-PBE-q6
  &END KIND
  &KIND C
    BASIS_SET  DZVP-MOLOPT-SR-GTH
    POTENTIAL GTH-PBE-q4
  &END KIND
 &END SUBSYS
&END FORCE_EVAL
