&GLOBAL
  RUN_TYPE  GEO_OPT 
  PRINT_LEVEL MEDIUM
&END GLOBAL

&MOTION
 &GEO_OPT
   MAX_ITER  1000
   MAX_DR    1.E-3
   RMS_DR    3.E-4
   MAX_FORCE 1.E-4
   RMS_FORCE 3.E-5
   OPTIMIZER BFGS
 &END GEO_OPT
&END MOTION

&FORCE_EVAL
 &DFT
   BASIS_SET_FILE_NAME  BASIS_SET 
   POTENTIAL_FILE_NAME  GTH_POTENTIALS
UKS T
  MULTIPLICITY 2
  CHARGE -1
  PLUS_U_METHOD LOWDIN
 &MGRID
   NGRIDS 5
  &RS_GRID
  &END RS_GRID
   CUTOFF 800
   COMMENSURATE
  &END MGRID
  &QS
    EXTRAPOLATION ASPC
    EXTRAPOLATION_ORDER 3
    EPS_DEFAULT 1.0E-12
   &CDFT 
     TYPE_OF_CONSTRAINT Hirshfeld 
     ATOMIC_CHARGES T 
     STRENGTH 0  
     TARGET 1 
    &ATOM_GROUP 
      ATOMS 46  
      COEFF 1 
      CONSTRAINT_TYPE  MAGNETIZATION  
     &END ATOM_GROUP
     &OUTER_SCF 
       TYPE CDFT_CONSTRAINT 
       EPS_SCF 1E-3 
       OPTIMIZER SECANT
       STEP_SIZE 0.05 
     &END OUTER_SCF
     &HIRSHFELD_CONSTRAINT
       SHAPE_FUNCTION DENSITY 
     &END HIRSHFELD_CONSTRAINT
    &END CDFT
   &END QS
  &SCF
    EPS_SCF 5.0E-7
    MAX_SCF 100
    SCF_GUESS RESTART 
   &OUTER_SCF
     MAX_SCF 20
     OPTIMIZER DIIS
     STEP_SIZE 0.15
     EPS_SCF 5.0E-7
   &END OUTER_SCF
   &OT T 
    MINIMIZER CG
    ALGORITHM IRAC
    PRECONDITIONER FULL_ALL
    ENERGY_GAP 0.001
   &END OT
  &END SCF
  &PRINT
   &E_DENSITY_CUBE
     STRIDE 3 
   &END E_DENSITY_CUBE
  &END PRINT
  &XC
   &XC_FUNCTIONAL PBE
   &END XC_FUNCTIONAL
   &VDW_POTENTIAL
     POTENTIAL_TYPE PAIR_POTENTIAL
    &PAIR_POTENTIAL
      TYPE DFTD3
      PARAMETER_FILE_NAME dftd3.dat
      REFERENCE_FUNCTIONAL PBE
    &END PAIR_POTENTIAL
   &END VDW_POTENTIAL
   &XC_GRID
     XC_SMOOTH_RHO NN10 
     XC_DERIV SPLINE2_smooth
   &END XC_GRID
  &END XC
 &END DFT
 &SUBSYS
  &CELL
   ABC 13.9105   13.9105   15.0489
  &END CELL
&COORD
 Ti        -0.0023922113       -0.0009971471        0.0002016971
 Ti         2.3174185459        2.3184480061        1.5063383397
 Ti         4.6316814474        0.0008830781        0.0001111650
 Ti         6.9529824397        2.3168079208        1.5040606840
 Ti         9.2763936828       -0.0014493064        0.0001200868
 Ti        11.5911348187        2.3177065462        1.5050485921
 Ti        -0.0004615751        4.6326321506        0.0002013407
 Ti         2.3158809715        6.9539487562        1.5040540360
 Ti         4.6423179574        4.6433552940        0.0001309316
 Ti         6.9531241782        6.9547999129        1.5164674524
 Ti         9.2731668830        4.6348599731        0.0006306108
 Ti        11.5918010057        6.9557968829        1.5038965298
 Ti        -0.0025832130        9.2771898828        0.0001975012
 Ti         2.3167079401       11.5921766423        1.5049659285
 Ti         4.6339413405        9.2742286819       -0.0000078551
 Ti         6.9548196938       11.5928287999        1.5038515581
 Ti         9.2644147535        9.2654510992        0.0001576423
 Ti        11.5896357665       11.5906183010        1.5065620125
 Ti        -0.0012617410       -0.0004762642        3.0095941975
 Ti         2.3183542032        2.3191334356        4.5200780416
 Ti         4.6391355875       -0.0030028328        3.0102657795
 Ti         6.9465611938        2.3231812218        4.5133801810
 Ti         9.2688968844        0.0023251962        3.0103259830
 Ti        11.5908597040        2.3182960660        4.5127436234
 Ti        -0.0037800430        4.6400160964        3.0103657559
 Ti         2.3224468308        6.9473849670        4.5133901595
 Ti         4.6388778761        4.6397073232        3.0060052829
 Ti         6.9542476642        6.9553161882        4.5410365095
 Ti         9.2717897098        4.6372406032        3.0113818167
 Ti        11.5860641784        6.9627327372        4.5132765457
 Ti         0.0015049628        9.2698522012        3.0103714967
 Ti         2.3172923322       11.5918667525        4.5127818858
 Ti         4.6360113037        9.2731207247        3.0111485592
 Ti         6.9619281101       11.5869044490        4.5133091962
 Ti         9.2688806878        9.2697695960        3.0060413880
 Ti        11.5902200974       11.5910025026        4.5201488065
 Ti        -0.0011291394       -0.0000358617        6.0180579334
 Ti         2.3255564875        2.3264289640        7.5245608895
 Ti         4.6339554467       -0.0020168487        6.0179829343
 Ti         6.9533387815        2.3155509391        7.5245471235
 Ti         9.2745038190        0.0017099477        6.0180261714
 Ti        11.5950317450        2.3143535142        7.5245464545
 Ti        -0.0028607322        4.6348915703        6.0180462734
 Ti         2.3147316040        6.9541705536        7.5246172052
 Ti         4.6544665230        4.6552719171        6.0171908623
 Ti         6.9535821494        6.9548608070        7.5247025004
 Ti         9.2739745305        4.6355509913        6.0223284673
 Ti        11.5940600864        6.9561055946        7.5245940911
 Ti         0.0009301819        9.2753262629        6.0180734247
 Ti         2.3133684876       11.5959790285        7.5246240939
 Ti         4.6346707106        9.2747900389        6.0221187467
 Ti         6.9550460946       11.5947895078        7.5246151751
 Ti         9.2540578482        9.2548819691        6.0173148041
 Ti        11.5827934637       11.5836012229        7.5245743739
 Ti        -0.0009980415       -0.0001037165        9.0312680013
 Ti         2.3183699468        2.3191651551       10.5290630403
 Ti         4.6339428838       -0.0020278691        9.0311612574
 Ti         6.9465185326        2.3232101656       10.5357078387
 Ti         9.2744381681        0.0017307332        9.0311253041
 Ti        11.5909268291        2.3181592216       10.5363458223
 Ti        -0.0028913288        4.6348607442        9.0312135590
 Ti         2.3223951729        6.9474176705       10.5358067870
 Ti         4.6544681681        4.6552924919        9.0319603116
 Ti         6.9544003965        6.9552657821       10.5082506518
 Ti         9.2738627162        4.6356539002        9.0272479342
 Ti        11.5860784440        6.9627723666       10.5358603026
 Ti         0.0009261947        9.2754283785        9.0312019245
 Ti         2.3174112170       11.5917914693       10.5365211688
 Ti         4.6345262466        9.2749620093        9.0271770984
 Ti         6.9619000055       11.5869116667       10.5359360883
 Ti         9.2540552569        9.2549281564        9.0319376549
 Ti        11.5901841589       11.5910746611       10.5289888887
 Ti        -0.0012081630       -0.0004340952       12.0397495025
 Ti         2.3174449719        2.3185477582       13.5427692698
 Ti         4.6391686338       -0.0029377661       12.0388900352
 Ti         6.9530182905        2.3169043168       13.5450386414
 Ti         9.2689040016        0.0023566942       12.0388426985
 Ti        11.5910944262        2.3178050276       13.5440821250
 Ti        -0.0038205200        4.6399973523       12.0388977911
 Ti         2.3158099764        6.9539211412       13.5451485131
 Ti         4.6389189183        4.6398241332       12.0431339514
 Ti         6.9536540972        6.9540196865       13.5328956548
 Ti         9.2721073975        4.6369762028       12.0382207592
 Ti        11.5917871099        6.9557525047       13.5452618733
 Ti         0.0014852120        9.2698464042       12.0389000544
 Ti         2.3167266695       11.5921673612       13.5442723098
 Ti         4.6363029903        9.2727295130       12.0381524639
 Ti         6.9548210136       11.5928199719       13.5453321607
 Ti         9.2688524695        9.2697231624       12.0432047181
 Ti        11.5896580849       11.5906151708       13.5425252650
  O         1.4140703707        1.4151079103        0.0001304334
  O         3.2129787300        3.2139644723        0.0001063780
  O         0.8956594015        3.7376044126        1.5046333598
  O         3.7366617374        0.8966200644        1.5046011788
  O         6.0563927111        1.4127704862        0.0001247428
  O         7.8536263521        3.2160756535        0.0001397929
  O         5.5315370199        3.7282187721        1.5012091942
  O         8.3746768130        0.9026901282        1.5043448963
  O        10.6921252358        1.4174676015        0.0001242436
  O        12.4914520388        3.2168181517        0.0001213963
  O        10.1758085280        3.7330364762        1.5039074376
  O        13.0082799970        0.9004662648        1.5046160670
  O         1.4118729647        6.0573721697        0.0001102819
  O         3.2151736049        7.8546539781        0.0001208802
  O         0.9017821973        8.3756196944        1.5043678141
  O         3.7273276790        5.5324738892        1.5011869760
  O         6.0500793593        6.0510951764        0.0001411821
  O         7.8576527363        7.8586614971        0.0000969557
  O         5.5302190917        8.3785487112        1.5030311907
  O         8.3775084484        5.5311785386        1.5030911497
  O        10.6927284746        6.0552396896        0.0001339488
  O        12.4961188755        7.8525227334        0.0001232708
  O        10.1806246842        8.3773331234        1.5012204365
  O        13.0062288179        5.5342572826        1.5043417409
  O         1.4165042014       10.6931157609        0.0001080152
  O         3.2157862635       12.4924426496        0.0001099703
  O         0.8994147137       13.0093271876        1.5046304640
  O         3.7320684058       10.1768576850        1.5039517574
  O         6.0543046479       10.6937530368        0.0001105407
  O         7.8515828684       12.4970472567        0.0001177946
  O         5.5333008879       13.0071569333        1.5043816164
  O         8.3763829171       10.1815500592        1.5012107025
  O        10.6949181815       10.6958915546        0.0001192146
  O        12.4938042827       12.4948371866        0.0001095468
  O        10.1713071018       13.0132060316        1.5046302331
  O        13.0122739155       10.1722257004        1.5045805758
  O         1.4139730586        1.4149421805        3.0088544512
  O         3.2113850889        3.2123334609        3.0045524432
  O         0.8964910715        3.7386216694        4.5139143485
  O         3.7376489867        0.8974458833        4.5139337877
  O         6.0576032415        1.4106909853        3.0064424050
  O         7.8529000126        3.2158165297        3.0089512697
  O         5.5235668659        3.7161076571        4.4996053598
  O         8.3722101851        0.9000442046        4.5153331848
  O        10.6913649139        1.4180151469        3.0097644429
  O        12.4909932431        3.2176119940        3.0097294120
  O        10.1769964478        3.7320757991        4.5136171440
  O        13.0085530089        0.9004715338        4.5135066838
  O         1.4097939310        6.0585589508        3.0064029954
  O         3.2148870648        7.8538950244        3.0089483609
  O         0.8991254436        8.3731772408        4.5153262819
  O         3.7151522490        5.5244261368        4.4995952147
  O         6.0486996307        6.0497582159        2.9859300467
  O         7.8592178452        7.8602666081        2.9859310256
  O         5.5279744812        8.3811464469        4.5077782020
  O         8.3801491441        5.5289534701        4.5077598941
  O        10.6931076513        6.0560972872        3.0089873884
  O        12.4983323074        7.8513409348        3.0063803069
  O        10.1931860055        8.3857764838        4.4995610458
  O        13.0090175818        5.5368352671        4.5153375509
  O         1.4169926669       10.6923635840        3.0097778602
  O         3.2165875327       12.4920166902        3.0097443176
  O         0.8994870496       13.0095320890        4.5134749053
  O         3.7311009927       10.1779798145        4.5135915502
  O         6.0551185319       10.6940797287        3.0089779650
  O         7.8504056245       12.4992760964        3.0063897375
  O         5.5358563126       13.0099336194        4.5153283382
  O         8.3848908561       10.1941355658        4.4995563395
  O        10.6966686433       10.6976202485        3.0044897835
  O        12.4939868991       12.4949530838        3.0088788403
  O        10.1704047971       13.0125513871        4.5139404730
  O        13.0116057012       10.1713723788        4.5139389881
  O         1.4128480637        1.4138008120        6.0170429055
  O         3.2079748940        3.2088937072        6.0184646652
  O         0.8956931416        3.7376763623        7.5245583901
  O         3.7367405153        0.8966155685        7.5245582048
  O         6.0540052046        1.4171217389        6.0222141046
  O         7.8514372443        3.2183018345        6.0159404140
  O         5.5389523974        3.7414860128        7.5245668673
  O         8.3732532455        0.9038479887        7.5245651200
  O        10.6922545883        1.4167445159        6.0193073473
  O        12.4923880312        3.2168448011        6.0192922604
  O        10.1792677331        3.7299700990        7.5245610468
  O        13.0089491587        0.9001830848        7.5245556076
  O         1.4162141699        6.0549580240        6.0222176313
  O         3.2173873977        7.8523754295        6.0158967271
  O         0.9029658495        8.3742157169        7.5245543806
  O         3.7405990505        5.5398901554        7.5245697494
  O         6.0155702824        6.0164917066        5.9221358357
  O         7.8926487879        7.8935597956        5.9223300795
  O         5.5201361299        8.3888258676        7.5245775473
  O         8.3879520831        5.5210379285        7.5246175709
  O        10.6908196205        6.0577818774        6.0159700437
  O        12.4920820209        7.8550984396        6.0221871695
  O        10.1678057993        8.3703278978        7.5245708389
  O        13.0053457397        5.5359042244        7.5245616680
  O         1.4158001380       10.6932332899        6.0193034188
  O         3.2158665349       12.4933504548        6.0192704851
  O         0.8992342384       13.0098975287        7.5245579602
  O         3.7290564046       10.1801707279        7.5245758051
  O         6.0567929003       10.6917122689        6.0159242270
  O         7.8541000430       12.4929742288        6.0222050256
  O         5.5349049684       13.0062110432        7.5245623654
  O         8.3693568385       10.1686700546        7.5245743345
  O        10.7002936026       10.7012109944        6.0185266891
  O        12.4953640545       12.4963117440        6.0169973779
  O        10.1714505898       13.0134595781        7.5245567091
  O        13.0125498170       10.1723889795        7.5245632719
  O         1.4128497036        1.4137886295        9.0320724931
  O         3.2079778924        3.2088946567        9.0306603782
  O         0.8964966839        3.7386161036       10.5352036409
  O         3.7376552335        0.8974460551       10.5351980096
  O         6.0540043795        1.4171207657        9.0269296864
  O         7.8514414967        3.2182881980        9.0332190848
  O         5.5235745861        3.7160879092       10.5495344153
  O         8.3722154615        0.9000400255       10.5337945016
  O        10.6922603997        1.4167431313        9.0298201614
  O        12.4923935087        3.2168392267        9.0298313470
  O        10.1770167619        3.7320529431       10.5355804618
  O        13.0085627115        0.9004645452       10.5356153875
  O         1.4162126491        6.0549608910        9.0269081285
  O         3.2173760203        7.8523735182        9.0332340801
  O         0.8991262573        8.3731729242       10.5338058758
  O         3.7151582822        5.5244264693       10.5495553061
  O         6.0155828452        6.0164688248        9.1270758798
  O         7.8926824020        7.8935647552        9.1268552880
  O         5.5280069487        8.3811151739       10.5413793371
  O         8.3801994010        5.5289113134       10.5414093791
  O        10.6908369571        6.0577724057        9.0331956385
  O        12.4920793832        7.8550995845        9.0269748784
  O        10.1931898368        8.3857595169       10.5495835538
  O        13.0090171702        5.5368230211       10.5337972704
  O         1.4158000341       10.6932273614        9.0298079006
  O         3.2158746656       12.4933509729        9.0298418109
  O         0.8995006249       13.0095244644       10.5356472187
  O         3.7311124649       10.1779631673       10.5355021150
  O         6.0567866332       10.6917165145        9.0332091474
  O         7.8541054643       12.4929747764        9.0269251955
  O         5.5358629044       13.0099338326       10.5337993271
  O         8.3848814307       10.1941147208       10.5495876654
  O        10.7002930408       10.7012152848        9.0306030339
  O        12.4953606829       12.4963034158        9.0321262385
  O        10.1704109071       13.0125481891       10.5351842695
  O        13.0116199195       10.1713741111       10.5351862656
  O         1.4139726632        1.4149366843       12.0402677470
  O         3.2113673594        3.2123109592       12.0445846179
  O         0.8956643393        3.7375978840       13.5444950063
  O         3.7366656065        0.8966131792       13.5445222128
  O         6.0576072328        1.4106941234       12.0427131697
  O         7.8529233053        3.2157982350       12.0402264407
  O         5.5315513855        3.7282198549       13.5479427819
  O         8.3746918965        0.9026930143       13.5447898512
  O        10.6913817654        1.4179939289       12.0393580511
  O        12.4910156034        3.2175943290       12.0394039581
  O        10.1758410658        3.7330158233       13.5452409877
  O        13.0083015787        0.9004593615       13.5445141565
  O         1.4097832821        6.0585536288       12.0427358335
  O         3.2148891054        7.8538725743       12.0401737147
  O         0.9017886800        8.3756117616       13.5447561813
  O         3.7273351055        5.5324684635       13.5479404385
  O         6.0487189395        6.0496516338       12.0631943185
  O         7.8592372487        7.8601558208       12.0632475844
  O         5.5301670042        8.3785217096       13.5460992371
  O         8.3774613350        5.5311529580       13.5461051355
  O        10.6931139363        6.0560708364       12.0402012280
  O        12.4983330223        7.8513331642       12.0427744929
  O        10.1806326642        8.3773302612       13.5479227246
  O        13.0062251515        5.5342470227       13.5447843570
  O         1.4170161908       10.6923507110       12.0393545229
  O         3.2166045904       12.4919951987       12.0393804047
  O         0.8994313415       13.0093246541       13.5444989942
  O         3.7320909715       10.1768403399       13.5452052550
  O         6.0551498430       10.6940695632       12.0401563397
  O         7.8504035209       12.4992829449       12.0427369868
  O         5.5333059241       13.0071585040       13.5447494074
  O         8.3763920174       10.1815507710       13.5479161835
  O        10.6966615384       10.6976043148       12.0446387539
  O        12.4939825005       12.4949478222       12.0402592725
  O        10.1713005373       13.0132042619       13.5445010803
  O        13.0122781812       10.1722246418       13.5445373504
&END COORD
  &KIND H
    BASIS_SET   DZVP-MOLOPT-SR-GTH
    POTENTIAL GTH-PBE-q1
  &END KIND
  &KIND Ti
    BASIS_SET  DZVP-MOLOPT-SR-GTH
    POTENTIAL GTH-PBE-q12
   &DFT_PLUS_U ON
     L 2
     U_MINUS_J [eV] 4.2
     U_RAMPING [eV] 0
   &END DFT_PLUS_U
  &END KIND
  &KIND O
    BASIS_SET  DZVP-MOLOPT-SR-GTH
    POTENTIAL GTH-PBE-q6
  &END KIND
  &KIND C
    BASIS_SET  DZVP-MOLOPT-SR-GTH
    POTENTIAL GTH-PBE-q4
  &END KIND
 &END SUBSYS
&END FORCE_EVAL
