@SET OT 1
@SET TD 0

&GLOBAL
  PROJECT  TiO2-Bulk
  RUN_TYPE  energy 
  PRINT_LEVEL medium
&END GLOBAL

&MOTION
  &GEO_OPT
    MAX_ITER  1000
    MAX_DR    1.E-3
    RMS_DR    3.E-4
    MAX_FORCE 1.E-4
    RMS_FORCE 3.E-5
    OPTIMIZER BFGS    
  &END GEO_OPT
&END MOTION

&FORCE_EVAL
&DFT
  BASIS_SET_FILE_NAME    BASIS_SET
  POTENTIAL_FILE_NAME    GTH_POTENTIALS
CHARGE -1
MULTIPLICITY 2
UKS T
 PLUS_U_METHOD LOWDIN
    &MGRID
      NGRIDS 5
    &RS_GRID
     &END RS_GRID
     CUTOFF 800
     COMMENSURATE
   &END MGRID
  &PRINT
    &PDOS
     NLUMO -1
    &END PDOS
     &MO_CUBES
      NHOMO 2
      NLUMO 2
     &END MO_CUBES
    &END PRINT
&QS
  EXTRAPOLATION ASPC
  EXTRAPOLATION_ORDER 3
  EPS_DEFAULT 1.0E-12
&END QS
&SCF
  @IF ${TD}
    EPS_SCF 5.0E-7
    MAX_SCF 300
    SCF_GUESS RESTART
   &MIXING on
     ALPHA 0.2
    &END MIXING
  @ENDIF
  @IF ${OT}
    EPS_SCF 5.0E-7
    MAX_SCF 200
    SCF_GUESS RESTART
   &OT on
     MINIMIZER DIIS
     PRECONDITIONER FULL_ALL
     ENERGY_GAP 0.001
   &END OT
   &OUTER_SCF on
     EPS_SCF 5.0E-7
     MAX_SCF 100
   &END OUTER_SCF
   @ENDIF
    &PRINT
     &RESTART
       BACKUP_COPIES 0
      &EACH
        QS_SCF 10
      &END EACH
     &END RESTART
    &END PRINT
   &END SCF
    &XC
      &XC_FUNCTIONAL PBE
       &END XC_FUNCTIONAL
      &VDW_POTENTIAL
        POTENTIAL_TYPE PAIR_POTENTIAL
       &PAIR_POTENTIAL
         TYPE DFTD3
         PARAMETER_FILE_NAME dftd3.dat
         REFERENCE_FUNCTIONAL PBE
        &END PAIR_POTENTIAL
      &END VDW_POTENTIAL
      &XC_GRID
        XC_DERIV SPLINE2_smooth
      &END XC_GRID
     &END XC
  &END DFT
 &SUBSYS
&CELL
ABC 13.9105   13.9105   15.0489
&END CELL
&COORD                                                                 
Ti      0.000009085   -0.000048556    0.000046644
Ti      2.318315519    2.318195049    1.504793089
Ti      4.636665357   -0.000023834   -0.000055501
Ti      6.955179234    2.318396626    1.504825395
Ti      9.273524308   -0.000083693   -0.000183814
Ti     11.591707521    2.318362384    1.504822209
Ti     -0.000291638    4.636850295    0.000116394
Ti      2.318277706    6.955364909    1.505025113
Ti      4.636622667    4.636913511   -0.000064186
Ti      6.955194106    6.955171382    1.504836978
Ti      9.273573151    4.636922627    0.000014550
Ti     11.592057038    6.955483405    1.504847195
Ti     -0.000039499    9.273705888    0.000021032
Ti      2.318508237   11.591724646    1.504852148
Ti      4.636841984    9.273433392   -0.000064202
Ti      6.955393094   11.592129897    1.504875924
Ti      9.273631510    9.273691493    0.000007132
Ti     11.592063999   11.592139521    1.504803988
Ti     -0.000100395    0.000030595    3.009819660
Ti      2.318334663    2.318008447    4.514696451
Ti      4.636857431   -0.000266651    3.009700812
Ti      6.955246128    2.318395551    4.514644434
Ti      9.273683988    0.000020243    3.009825194
Ti     11.592086535    2.318768147    4.514520487
Ti      0.000091853    4.636730037    3.009792148
Ti      2.318468089    6.955234276    4.514785097
Ti      4.636480676    4.636602894    3.009671002
Ti      6.955116975    6.955187844    4.514554413
Ti      9.273586106    4.636962774    3.009924868
Ti     11.592147171    6.955350446    4.514559533
Ti      0.000098695    9.273825012    3.009888996
Ti      2.318445125   11.592107990    4.514773705
Ti      4.636938454    9.273624568    3.009787053
Ti      6.955306843   11.592028752    4.514716876
Ti      9.273789906    9.273812155    3.009891671
Ti     11.592177715   11.592121304    4.514689005
Ti     -0.000170245   -0.000160830    6.019725388
Ti      2.318099069    2.318280818    7.524469431
Ti      4.636818420   -0.000068604    6.019675927
Ti      6.955329623    2.318433285    7.524399835
Ti      9.273864618    0.000070059    6.019723090
Ti     11.592048619    2.318372637    7.524367965
Ti      0.000035243    4.636776022    6.019532949
Ti      2.318496056    6.955196771    7.524486811
Ti      4.636687096    4.636487174    6.019462711
Ti      6.954936846    6.955119747    7.524407790
Ti      9.273633904    4.637035346    6.019841276
Ti     11.592083758    6.955210118    7.524403205
Ti      0.000071067    9.273641340    6.019738710
Ti      2.318424235   11.592043003    7.524629208
Ti      4.636899044    9.273647433    6.019592473
Ti      6.955561787   11.592124774    7.524530041
Ti      9.273698064    9.273582555    6.019730853
Ti     11.591958542   11.592105462    7.524518846
Ti     -0.000097747    0.000087121    9.029613774
Ti      2.318339714    2.318330624   10.534276506
Ti      4.637083818   -0.000047663    9.029403475
Ti      6.955163624    2.318876493   10.534118363
Ti      9.273551133    0.000126098    9.029726086
Ti     11.591960873    2.318511570   10.534299522
Ti     -0.000417865    4.636887729    9.029449209
Ti      2.318472278    6.955043451   10.533901674
Ti      4.636506649    4.636562446    9.029263221
Ti      6.955323592    6.955350137   10.533887656
Ti      9.273782957    4.636962589    9.029520030
Ti     11.592177764    6.955467515   10.534207013
Ti      0.000070407    9.273743703    9.029433938
Ti      2.318610629   11.592072450   10.534443934
Ti      4.636819881    9.274030619    9.029399023
Ti      6.955290884   11.591978953   10.534451834
Ti      9.273858174    9.273728016    9.029488245
Ti     11.592081145   11.592101383   10.534319644
Ti      0.000039901   -0.000071006   12.039198133
Ti      2.318351568    2.318512773   13.543994153
Ti      4.636999254    0.000060255   12.039130374
Ti      6.955036187    2.318639624   13.543853533
Ti      9.273408262    0.000062081   12.039280355
Ti     11.592040689    2.318465508   13.543951522
Ti      0.000320656    4.636792998   12.039209168
Ti      2.318267304    6.955317570   13.544006890
Ti      4.636695431    4.636960480   12.039141961
Ti      6.955307595    6.955212386   13.543790809
Ti      9.273696651    4.637079758   12.039187219
Ti     11.592042494    6.955304046   13.543901142
Ti      0.000081724    9.273652491   12.039085010
Ti      2.318566862   11.592003130   13.544037739
Ti      4.636757110    9.273241091   12.039099523
Ti      6.954837568   11.591850208   13.544069966
Ti      9.273674416    9.273717237   12.039228826
Ti     11.592117314   11.592028070   13.543972620
O       1.418323090    1.418316794   -0.000085171
O       3.218487107    3.218441471    0.000011237
O       0.900114644    3.736749347    1.504842733
O       3.736773067    0.900045852    1.504903800
O       6.055119164    1.418381689   -0.000089843
O       7.855274876    3.218522450   -0.000054206
O       5.536786445    3.736781290    1.504808837
O       8.373641649    0.900039529    1.504854349
O      10.691903533    1.418262112   -0.000056383
O      12.491999190    3.218497639    0.000010700
O      10.173606824    3.736755804    1.504923696
O      13.010356910    0.900052459    1.504866246
O       1.418219262    6.055212047    0.000026837
O       3.218457658    7.855263864    0.000000931
O       0.900040840    8.373693792    1.504898543
O       3.736575787    5.536898482    1.504873947
O       6.055119714    6.055185213   -0.000129302
O       7.855308789    7.855267295   -0.000058572
O       5.536877748    8.373530219    1.504870047
O       8.373574635    5.536934844    1.504901879
O      10.692017827    6.055190813   -0.000012220
O      12.492137631    7.855346332   -0.000085297
O      10.173677003    8.373615528    1.504915898
O      13.010402211    5.536975520    1.504983548
O       1.418314332   10.691980883   -0.000063683
O       3.218551218   12.492041015    0.000044800
O       0.900129751   13.010361821    1.504916890
O       3.736800447   10.173585789    1.504855213
O       6.055070407   10.691902193    0.000086337
O       7.855197451   12.492073102   -0.000110430
O       5.536920244   13.010403040    1.504797786
O       8.373670436   10.173792420    1.504911604
O      10.692036807   10.691915801   -0.000043365
O      12.492185421   12.492080248   -0.000053715
O      10.173673751   13.010408497    1.504830688
O      13.010416053   10.173752670    1.504925324
O       1.418323495    1.418251090    3.009737033
O       3.218358355    3.218340735    3.009772041
O       0.900103200    3.736615002    4.514673709
O       3.736826630    0.899995525    4.514629108
O       6.055172563    1.418298322    3.009728203
O       7.855303789    3.218476269    3.009765638
O       5.536796900    3.736626730    4.514594815
O       8.373617143    0.900031037    4.514732076
O      10.691964998    1.418361604    3.009789552
O      12.492106053    3.218533272    3.009671202
O      10.173696587    3.736854520    4.514749069
O      13.010460136    0.900175521    4.514719265
O       1.418374890    6.055202300    3.009816577
O       3.218517492    7.855356471    3.009807084
O       0.900109982    8.373625824    4.514743985
O       3.736721676    5.536857859    4.514676872
O       6.055084606    6.055094885    3.009735803
O       7.855298765    7.855343562    3.009738852
O       5.536909713    8.373600847    4.514692540
O       8.373597321    5.536964411    4.514752639
O      10.692056697    6.055187944    3.009731769
O      12.492230051    7.855407202    3.009768041
O      10.173770265    8.373595303    4.514717885
O      13.010456427    5.536850086    4.514639279
O       1.418386114   10.692007416    3.009825987
O       3.218477813   12.492039416    3.009741307
O       0.900014664   13.010439669    4.514722851
O       3.736780810   10.173766688    4.514665188
O       6.055227407   10.692016993    3.009751590
O       7.855365193   12.492112712    3.009786144
O       5.536907024   13.010391046    4.514706156
O       8.373626781   10.173680077    4.514741506
O      10.692085974   10.692064086    3.009773335
O      12.492139463   12.492125901    3.009757444
O      10.173761870   13.010413980    4.514708352
O      13.010450578   10.173754466    4.514742514
O       1.418257759    1.418194212    6.019598081
O       3.218292383    3.218348132    6.019604788
O       0.899987117    3.736839378    7.524529253
O       3.736800125    0.900129742    7.524561439
O       6.055207101    1.418314425    6.019575339
O       7.855320159    3.218577965    6.019531250
O       5.536813300    3.736652915    7.524432355
O       8.373641636    0.900135093    7.524530873
O      10.692105299    1.418422035    6.019497068
O      12.492180413    3.218548603    6.019552489
O      10.173773957    3.736818972    7.524506498
O      13.010430411    0.900104792    7.524545010
O       1.418373218    6.055189366    6.019579453
O       3.218494029    7.855380823    6.019603827
O       0.900112383    8.373589256    7.524503861
O       3.736696898    5.536798741    7.524396059
O       6.055064119    6.055006164    6.019501276
O       7.855194803    7.855307016    6.019612982
O       5.536809026    8.373654206    7.524513902
O       8.373545733    5.536944526    7.524601582
O      10.692045396    6.055190648    6.019515986
O      12.492175309    7.855322554    6.019569664
O      10.173768371    8.373543548    7.524535704
O      13.010361383    5.536878348    7.524429353
O       1.418372062   10.692044845    6.019644632
O       3.218444531   12.492175408    6.019637395
O       0.900024811   13.010441678    7.524594890
O       3.736786046   10.173843749    7.524448006
O       6.055281854   10.692005430    6.019656156
O       7.855401819   12.492191633    6.019567418
O       5.536985218   13.010373885    7.524448908
O       8.373725019   10.173748959    7.524558206
O      10.691994593   10.691999723    6.019598188
O      12.492052849   12.492137224    6.019622502
O      10.173636893   13.010438204    7.524648921
O      13.010402044   10.173767197    7.524536447
O       1.418274452    1.418287012    9.029441349
O       3.218384734    3.218411139    9.029309170
O       0.900134570    3.736791368   10.534171834
O       3.736844550    0.900068329   10.534236810
O       6.055270244    1.418438532    9.029335631
O       7.855402645    3.218609331    9.029322396
O       5.536740982    3.736783800   10.534249155
O       8.373486322    0.900222265   10.534368355
O      10.691994889    1.418410236    9.029356273
O      12.492091894    3.218434969    9.029345247
O      10.173761589    3.736819357   10.534336650
O      13.010358499    0.900097995   10.534362857
O       1.418238389    6.055112005    9.029256655
O       3.218515768    7.855425970    9.029308792
O       0.900131215    8.373571013   10.534240225
O       3.736643891    5.536785606   10.534137460
O       6.055080347    6.055036465    9.029346116
O       7.855377918    7.855313072    9.029167430
O       5.536902171    8.373609713   10.534123937
O       8.373615924    5.536957771   10.534236940
O      10.692078004    6.055245443    9.029382581
O      12.492217754    7.855346866    9.029281985
O      10.173767124    8.373603428   10.534305977
O      13.010384295    5.536916624   10.534362405
O       1.418426733   10.692007995    9.029471966
O       3.218577408   12.492194250    9.029427388
O       0.900108729   13.010404068   10.534297896
O       3.736778609   10.173737776   10.534318733
O       6.055287642   10.692088092    9.029371552
O       7.855356339   12.492166915    9.029529372
O       5.536997623   13.010342201   10.534308173
O       8.373626239   10.173717658   10.534266297
O      10.692027966   10.692030218    9.029380928
O      12.492101421   12.492148168    9.029407854
O      10.173696297   13.010463712   10.534368177
O      13.010434313   10.173780957   10.534247247
O       1.418304004    1.418389332   12.039130983
O       3.218462364    3.218499635   12.039101679
O       0.900132757    3.736791567   13.544122731
O       3.736725591    0.900051121   13.543951880
O       6.055193857    1.418465778   12.039046542
O       7.855346437    3.218681422   12.039078266
O       5.536786034    3.736881625   13.543952252
O       8.373482948    0.900178497   13.544013782
O      10.691948754    1.418346004   12.039142492
O      12.492260963    3.218511081   12.039133332
O      10.173729697    3.736815335   13.544001862
O      13.010456467    0.900070388   13.544030606
O       1.418388497    6.055215120   12.039055680
O       3.218398107    7.855187647   12.039017025
O       0.900052238    8.373659919   13.543996719
O       3.736599115    5.536937473   13.543949497
O       6.055215859    6.055200115   12.038972845
O       7.855349760    7.855327851   12.038979674
O       5.536952860    8.373500137   13.543980199
O       8.373598585    5.536926635   13.544013890
O      10.692060269    6.055273990   12.039047697
O      12.492220086    7.855390980   12.039130286
O      10.173749528    8.373608330   13.543986183
O      13.010463302    5.536910305   13.543957011
O       1.418367098   10.692057714   12.039175025
O       3.218641556   12.492165897   12.039198267
O       0.900171466   13.010399993   13.544032921
O       3.736754027   10.173590271   13.543973460
O       6.054982881   10.691847179   12.039135495
O       7.855276529   12.492032807   12.039278393
O       5.536858378   13.010414478   13.544029769
O       8.373503253   10.173691079   13.544036847
O      10.691990137   10.692002412   12.039122230
O      12.492198973   12.492126398   12.039140363
O      10.173760988   13.010387171   13.543962194
O      13.010418433   10.173715040   13.543963899
&END COORD
  &KIND H
   BASIS_SET DZVP-MOLOPT-SR-GTH
   POTENTIAL GTH-PBE-q1
  &END KIND
  &KIND Ti
   BASIS_SET  DZVP-MOLOPT-SR-GTH
   POTENTIAL GTH-PBE-q12
   &DFT_PLUS_U On
    L 2
    U_MINUS_J [eV] 4.2
    U_RAMPING [eV] 0
   &END DFT_PLUS_U
  &END KIND
  &KIND O
   BASIS_SET DZVP-MOLOPT-SR-GTH
   POTENTIAL GTH-PBE-q6
  &END KIND
  &KIND C
    BASIS_SET DZVP-MOLOPT-SR-GTH
    POTENTIAL GTH-PBE-q4
   &END KIND 
 &END SUBSYS
&END FORCE_EVAL

