&GLOBAL
  RUN_TYPE  GEO_OPT 
  PRINT_LEVEL MEDIUM
&END GLOBAL

&MOTION
 &GEO_OPT
   MAX_ITER  1000
   MAX_DR    1.E-3
   RMS_DR    3.E-4
   MAX_FORCE 1.E-4
   RMS_FORCE 3.E-5
   OPTIMIZER BFGS
 &END GEO_OPT
 &CONSTRAINT
  &FIXED_ATOMS
    COMPONENTS_TO_FIX  XYZ
    LIST 1..192
  &END FIXED_ATOMS
 &END CONSTRAINT
&END MOTION

&FORCE_EVAL
 &DFT
   BASIS_SET_FILE_NAME  BASIS_SET 
   POTENTIAL_FILE_NAME  GTH_POTENTIALS
   WFN_RESTART_FILE_NAME PROJECT-19-RESTART.wfn
UKS T
  MULTIPLICITY 2
  CHARGE -1
  PLUS_U_METHOD LOWDIN
 &MGRID
   NGRIDS 5
  &RS_GRID
  &END RS_GRID
   CUTOFF 500
   COMMENSURATE
  &END MGRID
  &QS
    EXTRAPOLATION ASPC
    EXTRAPOLATION_ORDER 3
    EPS_DEFAULT 1.0E-12
   &CDFT 
     TYPE_OF_CONSTRAINT Hirshfeld 
     ATOMIC_CHARGES T 
     STRENGTH -0.027810367311  
     TARGET 1
    &ATOM_GROUP 
      ATOMS 40 
      COEFF 1 
      CONSTRAINT_TYPE  MAGNETIZATION  
     &END ATOM_GROUP
     &OUTER_SCF 
       TYPE CDFT_CONSTRAINT 
       EPS_SCF 1E-3 
       OPTIMIZER SECANT
       STEP_SIZE 0.05 
     &END OUTER_SCF
     &HIRSHFELD_CONSTRAINT
       SHAPE_FUNCTION DENSITY 
     &END HIRSHFELD_CONSTRAINT
    &END CDFT
  &END QS
  &SCF
    EPS_SCF 5.0E-7
    MAX_SCF 100
    SCF_GUESS RESTART 
   &OUTER_SCF
     MAX_SCF 20
     OPTIMIZER DIIS
     STEP_SIZE 0.15
     EPS_SCF 5.0E-7
   &END OUTER_SCF
   &OT T 
    MINIMIZER CG
    ALGORITHM IRAC
    PRECONDITIONER FULL_ALL
    ENERGY_GAP 0.001
   &END OT
  &END SCF
  &PRINT
   &E_DENSITY_CUBE
     STRIDE 3 
   &END E_DENSITY_CUBE
  &END PRINT
  &XC
   &XC_FUNCTIONAL PBE
   &END XC_FUNCTIONAL
   &VDW_POTENTIAL
     POTENTIAL_TYPE PAIR_POTENTIAL
    &PAIR_POTENTIAL
      TYPE DFTD3
      PARAMETER_FILE_NAME dftd3.dat
      REFERENCE_FUNCTIONAL PBE
    &END PAIR_POTENTIAL
   &END VDW_POTENTIAL
   &XC_GRID
     XC_SMOOTH_RHO NN10 
     XC_DERIV SPLINE2_smooth
   &END XC_GRID
  &END XC
 &END DFT
 &SUBSYS
  &CELL
   ABC 12.9938   11.8360   25.0000
  &END CELL
&COORD
 Ti         1.6183683700        1.4774735651        7.7992321138
 Ti         4.8726753142        1.4802355674       17.1911566563
 Ti         4.8726767688        1.4950746567       10.6052905049
 Ti         1.6218517811        1.4779556017       14.3489968446
 Ti         4.8726774973        0.0094015280        7.2945553318
 Ti         1.6243397146        0.0002133096       17.6644610982
 Ti         1.6284391460       -0.0012301701       11.0115789594
 Ti         4.8726752852       -0.0018288576       13.9767726611
 Ti         8.1269865170        1.4774734764        7.7992317996
 Ti        11.3695753587        1.4798538389       17.1906257076
 Ti        11.3695767298        1.4861748004       10.6087278067
 Ti         8.1234989596        1.4779555559       14.3489966904
 Ti        11.3695779997       -0.0004548832        7.2972818404
 Ti         8.1210107867        0.0002133759       17.6644610614
 Ti         8.1169129866       -0.0012301119       11.0115788088
 Ti        11.3695753810       -0.0004782965       13.9748129098
 Ti         1.6273846728        4.4384997072        7.8053383402
 Ti         4.8726757215        4.4384999915       17.1856802161
 Ti         4.8726769668        4.4384997659       10.6366001424
 Ti         1.6247927722        4.4385001833       14.3480451775
 Ti         4.8726776445        2.9816696628        7.3111142264
 Ti         1.6244171487        2.9590202150       17.6623824406
 Ti         1.6459057486        2.9536276997       11.0154158322
 Ti         4.8726754035        2.9559452939       13.9715810411
 Ti         8.1179699763        4.4384996889        7.8053376937
 Ti        11.3695755871        4.4384999395       17.1901243938
 Ti        11.3695787703        4.4385004586       10.6092913882
 Ti         8.1205583072        4.4385000850       14.3480451159
 Ti        11.3695778669        2.9602720955        7.3003520272
 Ti         8.1209337298        2.9590201366       17.6623823856
 Ti         8.0994480070        2.9536278881       11.0154151841
 Ti        11.3695754442        2.9589362179       13.9732015985
 Ti         1.6183682250        7.3995258778        7.7992320611
 Ti         4.8726753186        7.3967644550       17.1911566913
 Ti         4.8726769667        7.3819250504       10.6052902110
 Ti         1.6218517982        7.3990444875       14.3489970851
 Ti         4.8726776922        5.8953294477        7.3111142378
 Ti         1.6244170984        5.9179797377       17.6623825743
 Ti         1.6459061775        5.9233725105       11.0154156380
 Ti         4.8726755371        5.9210547093       13.9715809292
 Ti         8.1269865185        7.3995260812        7.7992314538
 Ti        11.3695753385        7.3971462215       17.1906261875
 Ti        11.3695768345        7.3908256447       10.6087273936
 Ti         8.1234989925        7.3990445804       14.3489969830
 Ti        11.3695777672        5.9167274735        7.3003518821
 Ti         8.1209337711        5.9179797515       17.6623824344
 Ti         8.0994479241        5.9233724705       11.0154149114
 Ti        11.3695753541        5.9180641674       13.9732018473
 Ti         1.6245951804       10.3564997924        7.7983671992
 Ti         4.8726752547       10.3565000428       17.1936236797
 Ti         4.8726760426       10.3564997799       10.6039114682
 Ti         1.6229652882       10.3564999278       14.3526074144
 Ti         4.8726774203        8.8675976603        7.2945551691
 Ti         1.6243396654        8.8767867717       17.6644611249
 Ti         1.6284392673        8.8782301590       11.0115790547
 Ti         4.8726753527        8.8788288113       13.9767726623
 Ti         8.1207601974       10.3564998395        7.7983667757
 Ti        11.3695752437       10.3565001228       17.1916351489
 Ti        11.3695765818       10.3565000917       10.6068533790
 Ti         8.1223853698       10.3565000036       14.3526074601
 Ti        11.3695779645        8.8774545535        7.2972818241
 Ti         8.1210108363        8.8767867325       17.6644611039
 Ti         8.1169130587        8.8782302150       11.0115788077
 Ti        11.3695753555        8.8774783970       13.9748130576
  O         1.5984903482        1.4670803532        9.5956874637
  O         1.6235474424        1.4796196432       16.1850102514
  O         4.8726755975        1.4820270519       15.3957333076
  O         4.8726796319        1.4701284650        8.7783033912
  O         4.8726773016        1.4821034859        6.2292226155
  O         4.8726754432        1.4739850159       12.8413512118
  O         1.6261517416        1.4805050032       18.7379270554
  O         1.5978167953        1.4664862628       12.1744958877
  O         0.4002247793       -0.0022984678        7.4322533446
  O         3.5861789438       -0.0152103090       10.8283005563
  O         2.8398942431       -0.0007918848        7.4415278682
  O         6.1591739684       -0.0152105082       10.8283015374
  O         6.0928260983        0.0007423609       17.5485821765
  O         2.9019855662       -0.0007261966       14.1674399006
  O         3.6525244133        0.0007423582       17.5485817665
  O         0.3420271292       -0.0014920221       14.1730262322
  O         8.1468619385        1.4670803292        9.5956871245
  O         8.1218029168        1.4796196180       16.1850102124
  O        11.3695754626        1.4812549118       15.3952427069
  O        11.3695812866        1.4751547936        8.7784969218
  O        11.3695778090        1.4814236241        6.2233817736
  O        11.3695754556        1.4786681685       12.8359327021
  O         8.1191994736        1.4805050558       18.7379270799
  O         8.1475363301        1.4664864514       12.1744955209
  O         6.9054616286       -0.0007922939        7.4415266644
  O        10.0956275862       -0.0041900068       10.8223283212
  O         9.3451316716       -0.0022978643        7.4322542224
  O        12.6435254896       -0.0041903284       10.8223304835
  O        12.5898562551        0.0004389271       17.5485664419
  O         9.4033236158       -0.0014920140       14.1730263433
  O        10.1492942896        0.0004389614       17.5485662125
  O         6.8433653193       -0.0007260648       14.1674393996
  O         1.6324657707        4.4385000410        9.6054010910
  O         1.6269467630        4.4385002117       16.1834340822
  O         4.8726756762        4.4384999538       15.3894730048
  O         4.8726812101        4.4384998646        8.7358168924
  O         4.8726771308        4.4384994760        6.2044652457
  O         4.8726752162        4.4384999506       12.8246690952
  O         1.6239146438        4.4384999708       18.7366627507
  O         1.6317866740        4.4385000430       12.1694488420
  O         0.4003704758        2.9625607544        7.4430640116
  O         3.5446023540        2.8673710437       10.8338729886
  O         2.8375764075        2.9553011857        7.4379099920
  O         6.2007512526        2.8673711577       10.8338750233
  O         6.0925534663        2.9600370836       17.5463612569
  O         2.9044129408        2.9567250741       14.1630772955
  O         3.6527973656        2.9600371599       17.5463610398
  O         0.3441241933        2.9608636381       14.1671097478
  O         8.1128861704        4.4384999602        9.6054003070
  O         8.1184037213        4.4385002282       16.1834340271
  O        11.3695754726        4.4385001774       15.3945777758
  O        11.3695837963        4.4385003190        8.7781420875
  O        11.3695771150        4.4384997020        6.2228617987
  O        11.3695756089        4.4385003775       12.8348009332
  O         8.1214366193        4.4384998950       18.7366626037
  O         8.1135703114        4.4385002402       12.1694481278
  O         6.9077802473        2.9553007463        7.4379068661
  O        10.0977438518        2.9573282525       10.8184844914
  O         9.3449862394        2.9625609327        7.4430663925
  O        12.6414105257        2.9573276699       10.8184887094
  O        12.5898844988        2.9593104458       17.5475738895
  O         9.4012267672        2.9608635064       14.1671100113
  O        10.1492663520        2.9593105213       17.5475736384
  O         6.8409381016        2.9567252667       14.1630764809
  O         1.5984904289        7.4099194863        9.5956873751
  O         1.6235474727        7.3973804976       16.1850102208
  O         4.8726754966        7.3949729296       15.3957334435
  O         4.8726795957        7.4068710334        8.7783033553
  O         4.8726774557        7.3948956531        6.2292226199
  O         4.8726755420        7.4030148716       12.8413513753
  O         1.6261516609        7.3964950240       18.7379271201
  O         1.5978169212        7.4105138732       12.1744956182
  O         0.4003705282        5.9144387294        7.4430638171
  O         3.5446023715        6.0096288924       10.8338729395
  O         2.8375764534        5.9216981320        7.4379101283
  O         6.2007511782        6.0096287125       10.8338747320
  O         6.0925535042        5.9169628703       17.5463612619
  O         2.9044129545        5.9202750731       14.1630772667
  O         3.6527973552        5.9169627707       17.5463609908
  O         0.3441242585        5.9161366589       14.1671099189
  O         8.1468616698        7.4099195816        9.5956867527
  O         8.1218029186        7.3973804439       16.1850101445
  O        11.3695754223        7.3957453212       15.3952432484
  O        11.3695814710        7.4018449491        8.7784968574
  O        11.3695776267        7.3955760447        6.2233816086
  O        11.3695748900        7.3983320329       12.8359330733
  O         8.1191995568        7.3964950138       18.7379270409
  O         8.1475363246        7.4105136445       12.1744951976
  O         6.9077802267        5.9216984940        7.4379068334
  O        10.0977438305        5.9196722317       10.8184841062
  O         9.3449861606        5.9144385503        7.4430662199
  O        12.6414105065        5.9196727778       10.8184886627
  O        12.5898845256        5.9176895147       17.5475739000
  O         9.4012266336        5.9161366826       14.1671103402
  O        10.1492663517        5.9176894088       17.5475738507
  O         6.8409379667        5.9202748261       14.1630765513
  O         1.6126766335       10.3564999548        9.5973415414
  O         1.6253384697       10.3564998262       16.1874625356
  O         4.8726755689       10.3564999838       15.3991027255
  O         4.8726778522       10.3564993848        8.7846680672
  O         4.8726773655       10.3564997770        6.2268616346
  O         4.8726754440       10.3564999790       12.8418817871
  O         1.6248088378       10.3565000930       18.7389137078
  O         1.6081074085       10.3565000642       12.1703399789
  O         0.4002247719        8.8792978092        7.4322535438
  O         3.5861789228        8.8922101444       10.8283005315
  O         2.8398942714        8.8777912667        7.4415277271
  O         6.1591739521        8.8922103559       10.8283015519
  O         6.0928261086        8.8762577168       17.5485821017
  O         2.9019855836        8.8777262035       14.1674399403
  O         3.6525244113        8.8762577458       17.5485817867
  O         0.3420271334        8.8784919879       14.1730263092
  O         8.1326761228       10.3564998977        9.5973411120
  O         8.1200117579       10.3564998700       16.1874625796
  O        11.3695753625       10.3564999322       15.3969766211
  O        11.3695795615       10.3564996139        8.7762029557
  O        11.3695776214       10.3564998654        6.2206900161
  O        11.3695752353       10.3564999714       12.8373127320
  O         8.1205421484       10.3565001247       18.7389136062
  O         8.1372449158       10.3565000246       12.1703397977
  O         6.9054616748        8.8777917793        7.4415263102
  O        10.0956275612        8.8811901780       10.8223280426
  O         9.3451316813        8.8792972841        7.4322544368
  O        12.6435255139        8.8811904587       10.8223304089
  O        12.5898562402        8.8765612457       17.5485665752
  O         9.4033234593        8.8784920855       14.1730265447
  O        10.1492943157        8.8765612354       17.5485663470
  O         6.8433652559        8.8777261263       14.1674395365
&END COORD
  &KIND H
    BASIS_SET   DZVP-MOLOPT-SR-GTH
    POTENTIAL GTH-PBE-q1
  &END KIND
  &KIND Ti
    BASIS_SET  DZVP-MOLOPT-SR-GTH
    POTENTIAL GTH-PBE-q12
   &DFT_PLUS_U ON
     L 2
     U_MINUS_J [eV] 4.2
     U_RAMPING [eV] 0
   &END DFT_PLUS_U
  &END KIND
  &KIND O
    BASIS_SET  DZVP-MOLOPT-SR-GTH
    POTENTIAL GTH-PBE-q6
  &END KIND
  &KIND C
    BASIS_SET  DZVP-MOLOPT-SR-GTH
    POTENTIAL GTH-PBE-q4
  &END KIND
 &END SUBSYS
&END FORCE_EVAL
