@SET OT 1
@SET TD 0

&GLOBAL
  PROJECT  TiO2-rutile-110
  RUN_TYPE  energy 
  PRINT_LEVEL medium
&END GLOBAL

&MOTION
  &GEO_OPT
    MAX_ITER 40000
    MAX_DR 1.E-3	
    MAX_FORCE 1.E-4
    OPTIMIZER BFGS
  &END GEO_OPT
&END MOTION

&FORCE_EVAL
&DFT
  BASIS_SET_FILE_NAME    BASIS_SET
  POTENTIAL_FILE_NAME    GTH_POTENTIALS
CHARGE -1
MULTIPLICITY 2
UKS T

 PLUS_U_METHOD LOWDIN
    &MGRID
    &RS_GRID
     &END RS_GRID
     CUTOFF 500
     COMMENSURATE
   &END MGRID
  &PRINT
    &PDOS
     NLUMO 500
    &END PDOS
     &MO_CUBES
      NHOMO 2
      NLUMO 2
     &END MO_CUBES
    &END PRINT

&QS
  EXTRAPOLATION PS
  EXTRAPOLATION_ORDER 3
  EPS_DEFAULT 1.0E-12
&END QS
&SCF
  @IF ${TD}
    EPS_SCF 5.0E-7
    MAX_SCF 300
    SCF_GUESS RESTART
   &MIXING on
     ALPHA 0.2
    &END MIXING
  @ENDIF
  @IF ${OT}
    EPS_SCF 5.0E-7
    MAX_SCF 200
    SCF_GUESS RESTART
   &OT on
     MINIMIZER DIIS
     PRECONDITIONER FULL_ALL
     ENERGY_GAP 0.01
   &END OT
   &OUTER_SCF on
     EPS_SCF 5.0E-7
     MAX_SCF 100
   &END OUTER_SCF
   @ENDIF
    &PRINT
     &RESTART
       BACKUP_COPIES 0
      &EACH
        QS_SCF 10
      &END EACH
     &END RESTART
    &END PRINT
   &END SCF
    &XC
      &XC_FUNCTIONAL PBE
       &END XC_FUNCTIONAL
      &VDW_POTENTIAL
        POTENTIAL_TYPE PAIR_POTENTIAL
       &PAIR_POTENTIAL
         TYPE DFTD3
         PARAMETER_FILE_NAME dftd3.dat
         REFERENCE_FUNCTIONAL PBE
        &END PAIR_POTENTIAL
      &END VDW_POTENTIAL
      &XC_GRID
        XC_DERIV SPLINE2_smooth
      &END XC_GRID
     &END XC
  &END DFT
 &SUBSYS
&CELL
ABC 12.9938   11.8360   25.0000
&END CELL
&COORD                                                                           
Ti      1.579698537    1.433042005    7.782924415
Ti      4.916886406    1.430846375   17.191498757
Ti      4.833359526    1.432444222   10.627077656
Ti      1.665298788    1.434778792   14.373112134
Ti      4.828126711   -0.046230214    7.308231814
Ti      1.672944412   -0.046239997   17.689628560
Ti      1.583033466   -0.046271126   11.002915208
Ti      4.916163990   -0.046292276   13.985466073
Ti      8.078878142    1.433013136    7.782956456
Ti     11.413566400    1.433104512   17.208494410
Ti     11.329592796    1.433119315   10.624168777
Ti      8.160865744    1.435140618   14.372848467
Ti     11.324890814   -0.046246162    7.306529323
Ti      8.162596907   -0.046252681   17.689171891
Ti      8.076521920   -0.046271179   11.003238199
Ti     11.411751676   -0.046262383   13.985038819
Ti      1.580237601    4.392215969    7.784090579
Ti      4.916943394    4.385342408   17.177804774
Ti      4.832825177    4.391638616   10.654875619
Ti      1.664944299    4.393609082   14.371737008
Ti      4.828235692    2.917445380    7.319826003
Ti      1.673435385    2.912648429   17.687342766
Ti      1.583952124    2.912011799   11.001405314
Ti      4.915574129    2.938659557   13.938737179
Ti      8.078268051    4.392234476    7.783927765
Ti     11.413572570    4.391759844   17.207107194
Ti     11.329358196    4.391712571   10.624677957
Ti      8.159865206    4.394207319   14.370993598
Ti     11.324890000    2.912731339    7.306751993
Ti      8.162071342    2.912661669   17.686635516
Ti      8.075253131    2.911944968   11.000431043
Ti     11.411488197    2.912519390   13.985045653
Ti      1.580226010    7.351194599    7.784088713
Ti      4.916941008    7.358098998   17.177897431
Ti      4.832849832    7.351815175   10.654850517
Ti      1.664925605    7.349837714   14.371756917
Ti      4.828252937    5.871760908    7.329551437
Ti      1.672097366    5.871777355   17.681468780
Ti      1.582159676    5.871742443   11.004435238
Ti      4.914616422    5.871790404   14.019579638
Ti      8.078265238    7.351182306    7.783928380
Ti     11.413576805    7.351656384   17.207106136
Ti     11.329397594    7.351697864   10.624681406
Ti      8.159852368    7.349219429   14.371004789
Ti     11.324874287    5.871770779    7.306926473
Ti      8.163409516    5.871769354   17.679819720
Ti      8.076359688    5.871739393   11.004601761
Ti     11.411328973    5.871749955   13.983118810
Ti      1.579695029   10.310371270    7.782915477
Ti      4.916884482   10.312584127   17.191515714
Ti      4.833386723   10.310982986   10.627082027
Ti      1.665285376   10.308655084   14.373129537
Ti      4.828224704    8.826081433    7.319806405
Ti      1.673446003    8.830885159   17.687385068
Ti      1.583989191    8.831460892   11.001394147
Ti      4.915551475    8.804774540   13.938791600
Ti      8.078873736   10.310415290    7.782956071
Ti     11.413567856   10.310330190   17.208493546
Ti     11.329618364   10.310326892   10.624165517
Ti      8.160829700   10.308299560   14.372849898
Ti     11.324877009    8.830771319    7.306734048
Ti      8.162086949    8.830880185   17.686661326
Ti      8.075298850    8.831531213   11.000446232
Ti     11.411457785    8.830967840   13.985034876
O       1.582628963    1.431624761    9.581628804
O       1.667759795    1.432352971   16.202616981
O       4.908299765    1.412490090   15.402521368
O       4.828096989    1.428924654    8.792392381
O       4.828855630    1.434844925    6.237983129
O       4.905482476    1.415549667   12.812831809
O       1.665869710    1.433404414   18.763924099
O       1.586838769    1.432542764   12.148248725
O       0.357730285   -0.046385652    7.424237135
O       3.556408843   -0.046447701   10.817385818
O       2.796609187   -0.046386543    7.422679708
O       6.124286565   -0.046421710   10.799167922
O       6.140822567   -0.046388592   17.568573301
O       2.926758613   -0.046416624   14.154952201
O       3.694207751   -0.046376591   17.572326001
O       0.373469563   -0.046415237   14.185953732
O       8.095392849    1.431371053    9.581360361
O       8.172601893    1.432192533   16.202827328
O      11.401888377    1.432215724   15.406455877
O      11.324917187    1.432771386    8.791331848
O      11.326001636    1.433363803    6.230441275
O      11.403342420    1.432123741   12.830144573
O       8.168160950    1.433559909   18.763475857
O       8.091643328    1.432601709   12.147215392
O       6.862051822   -0.046390929    7.425381105
O      10.060442133   -0.046439184   10.825486996
O       9.301112279   -0.046387780    7.421226228
O      12.613865391   -0.046431521   10.805464914
O      12.633614718   -0.046403438   17.568840388
O       9.437544014   -0.046420733   14.156881624
O      10.195847922   -0.046396738   17.573491872
O       6.886705917   -0.046469335   14.181727933
O       1.585816776    4.392947866    9.583491377
O       1.662807880    4.387251965   16.201132843
O       4.907539040    4.311443473   15.394749180
O       4.828783589    4.389152122    8.796232093
O       4.828773330    4.393443301    6.243250364
O       4.903096567    4.306329329   12.744598002
O       1.671195210    4.394719366   18.760005124
O       1.587809241    4.391226292   12.148718263
O       0.357856850    2.912989337    7.425462772
O       3.552874175    2.902120570   10.807452639
O       2.796253994    2.912240981    7.423610722
O       6.128844128    2.902008614   10.786781899
O       6.140605944    2.910699370   17.565812433
O       2.920796510    2.908128301   14.150981011
O       3.694555214    2.910550674   17.569922530
O       0.370026111    2.910059318   14.185600765
O       8.091832017    4.393158647    9.582838620
O       8.177988962    4.387323847   16.200678233
O      11.401779859    4.390505107   15.405778665
O      11.324930537    4.392203134    8.791992283
O      11.325995414    4.392219569    6.230762796
O      11.402949057    4.390896382   12.829020707
O       8.162580478    4.394976499   18.758978568
O       8.091099425    4.390831050   12.146938787
O       6.862496632    2.912089180    7.426101680
O      10.060260446    2.912383748   10.824149764
O       9.300994716    2.912959039    7.422551599
O      12.614258551    2.912422546   10.805006734
O      12.633743786    2.912530217   17.569295942
O       9.440174876    2.909805168   14.155451189
O      10.195906998    2.912593284   17.573860599
O       6.893039670    2.907716069   14.178958005
O       1.585777858    7.350089683    9.583480673
O       1.662782538    7.355667687   16.201177120
O       4.907547731    7.432043937   15.394832897
O       4.828784156    7.353801125    8.796216921
O       4.828774346    7.349814527    6.243247386
O       4.903050682    7.437141402   12.744601096
O       1.671192717    7.348519689   18.760043875
O       1.587791146    7.351985506   12.148720400
O       0.357944047    5.871603379    7.425798792
O       3.557107200    5.871524567   10.822752708
O       2.795856268    5.871602220    7.423764544
O       6.123377778    5.871575591   10.803846791
O       6.143382407    5.871605368   17.509926368
O       2.903613713    5.871588234   14.168319497
O       3.693183103    5.871579732   17.520822910
O       0.365171788    5.871568222   14.186719598
O       8.091808225    7.349937645    9.582843050
O       8.178022755    7.355638547   16.200717423
O      11.401775912    7.352521888   15.405781305
O      11.324930503    7.350789237    8.791995443
O      11.325996760    7.351042845    6.230734746
O      11.402945427    7.352288296   12.829014113
O       8.162572596    7.348276791   18.759008120
O       8.091106308    7.352378944   12.146935944
O       6.862952997    5.871610140    7.426030189
O      10.059825870    5.871534961   10.826027923
O       9.300954867    5.871601150    7.422824511
O      12.614671520    5.871565429   10.806100954
O      12.634210314    5.871594698   17.567334483
O       9.444478029    5.871548955   14.158444811
O      10.195899284    5.871590793   17.572073525
O       6.910664753    5.871574768   14.188593073
O       1.582598833   10.311399653    9.581611919
O       1.667761814   10.310581251   16.202642543
O       4.908249745   10.330619561   15.402559595
O       4.828093333   10.314037515    8.792406147
O       4.828858248   10.308402337    6.237979206
O       4.905402871   10.327653716   12.812832228
O       1.665856842   10.309852211   18.763955794
O       1.586824763   10.310646481   12.148247044
O       0.357876353    8.830225134    7.425457668
O       3.552836014    8.840950490   10.807404407
O       2.796263894    8.830978899    7.423626247
O       6.128769571    8.841064514   10.786834003
O       6.140577482    8.832511561   17.565879145
O       2.920728322    8.835026100   14.151056287
O       3.694524181    8.832667108   17.569983190
O       0.370024064    8.833088754   14.185616650
O       8.095366120   10.311723838    9.581356598
O       8.172591120   10.310752231   16.202831361
O      11.401875518   10.310825355   15.406445270
O      11.324905850   10.310235539    8.791339698
O      11.326009314   10.309875216    6.230439366
O      11.403336778   10.311061932   12.830130550
O       8.168161810   10.309692317   18.763508352
O       8.091639511   10.310604062   12.147227595
O       6.862514746    8.831126034    7.426104310
O      10.060216838    8.830721340   10.824142975
O       9.301009933    8.830256509    7.422559298
O      12.614221519    8.830690174   10.805002520
O      12.633719339    8.830663060   17.569294975
O       9.440198523    8.833311266   14.155449142
O      10.195889518    8.830608284   17.573863038
O       6.893098336    8.835386750   14.178953916
&END COORD
  &KIND H
   BASIS_SET DZVP-MOLOPT-SR-GTH
   POTENTIAL GTH-PBE-q1
  &END KIND
  &KIND Ti
   BASIS_SET  DZVP-MOLOPT-SR-GTH
   POTENTIAL GTH-PBE-q12
   &DFT_PLUS_U On
    L 2
    U_MINUS_J [eV] 4.2
    U_RAMPING [eV] 0
   &END DFT_PLUS_U
  &END KIND
  &KIND O
   BASIS_SET DZVP-MOLOPT-SR-GTH
   POTENTIAL GTH-PBE-q6
  &END KIND
  &KIND C
    BASIS_SET DZVP-MOLOPT-SR-GTH
    POTENTIAL GTH-PBE-q4
   &END KIND 
 &END SUBSYS
&END FORCE_EVAL

