&GLOBAL
  RUN_TYPE  GEO_OPT 
  PRINT_LEVEL MEDIUM
&END GLOBAL

&MOTION
 &GEO_OPT
   MAX_ITER  1000
   MAX_DR    1.E-3
   RMS_DR    3.E-4
   MAX_FORCE 1.E-4
   RMS_FORCE 3.E-5
   OPTIMIZER BFGS
 &END GEO_OPT
&END MOTION

&FORCE_EVAL
 &DFT
   BASIS_SET_FILE_NAME  BASIS_SET 
   POTENTIAL_FILE_NAME  GTH_POTENTIALS
UKS T
  MULTIPLICITY 2
  CHARGE -1
  PLUS_U_METHOD LOWDIN
 &MGRID
   NGRIDS 5
  &RS_GRID
  &END RS_GRID
   CUTOFF 800
   COMMENSURATE
  &END MGRID
  &QS
    EXTRAPOLATION ASPC
    EXTRAPOLATION_ORDER 3
    EPS_DEFAULT 1.0E-12
   &CDFT 
     TYPE_OF_CONSTRAINT Hirshfeld 
     ATOMIC_CHARGES T 
     STRENGTH 0  
     TARGET 1 
    &ATOM_GROUP 
      ATOMS 71  
      COEFF 1 
      CONSTRAINT_TYPE  MAGNETIZATION  
     &END ATOM_GROUP
     &OUTER_SCF 
       TYPE CDFT_CONSTRAINT 
       EPS_SCF 1E-3 
       OPTIMIZER SECANT
       STEP_SIZE 0.05 
     &END OUTER_SCF
     &HIRSHFELD_CONSTRAINT
       SHAPE_FUNCTION DENSITY 
     &END HIRSHFELD_CONSTRAINT
    &END CDFT
  &END QS
  &SCF
    EPS_SCF 5.0E-7
    MAX_SCF 100
    SCF_GUESS RESTART 
   &OUTER_SCF
     MAX_SCF 20
     OPTIMIZER DIIS
     STEP_SIZE 0.15
     EPS_SCF 5.0E-7
   &END OUTER_SCF
   &OT T 
    MINIMIZER CG
    ALGORITHM IRAC
    PRECONDITIONER FULL_ALL
    ENERGY_GAP 0.001
   &END OT
  &END SCF
  &PRINT
   &E_DENSITY_CUBE
     STRIDE 3 
   &END E_DENSITY_CUBE
  &END PRINT
  &XC
   &XC_FUNCTIONAL PBE
   &END XC_FUNCTIONAL
   &VDW_POTENTIAL
     POTENTIAL_TYPE PAIR_POTENTIAL
    &PAIR_POTENTIAL
      TYPE DFTD3
      PARAMETER_FILE_NAME dftd3.dat
      REFERENCE_FUNCTIONAL PBE
    &END PAIR_POTENTIAL
   &END VDW_POTENTIAL
   &XC_GRID
     XC_SMOOTH_RHO NN10 
     XC_DERIV SPLINE2_smooth
   &END XC_GRID
  &END XC
 &END DFT
 &SUBSYS
  &CELL
   ABC 13.9105   13.9105   15.0489
  &END CELL
&COORD
 Ti        -0.0000113854        0.0007915551        0.0015549960
 Ti         2.3176056309        2.3180996709        1.5051205465
 Ti         4.6364454694       -0.0016845258       -0.0020216553
 Ti         6.9505279560        2.3168169205        1.5048739959
 Ti         9.2710020743        0.0009148994        0.0014418657
 Ti        11.5945740416        2.3191571405        1.5050244113
 Ti        -0.0022277125        4.6373684029       -0.0017873053
 Ti         2.3161513071        6.9513998193        1.5050289128
 Ti         4.6346650151        4.6359102184        0.0008523228
 Ti         6.9536394180        6.9540990060        1.5050330218
 Ti         9.2741234954        4.6348498830        0.0017054290
 Ti        11.5833895615        6.9623122844        1.5054695894
 Ti        -0.0002324027        9.2715993906        0.0018087476
 Ti         2.3185507228       11.5949739202        1.5051030421
 Ti         4.6344605180        9.2746592149        0.0015519580
 Ti         6.9618967788       11.5840722588        1.5053689078
 Ti         9.2729048569        9.2734552373       -0.0108474852
 Ti        11.5919648545       11.5927696477        1.5052642095
 Ti        -0.0009643414       -0.0005906825        3.0106822859
 Ti         2.3178143292        2.3180708143        4.5134211263
 Ti         4.6368119098       -0.0012241189        3.0105566618
 Ti         6.9581483480        2.3205341118        4.5149933000
 Ti         9.2722520507        0.0003410205        3.0092323748
 Ti        11.5877632258        2.3157068357        4.5150259482
 Ti        -0.0014812818        4.6371587564        3.0107008382
 Ti         2.3203463752        6.9584313411        4.5150618969
 Ti         4.6365154905        4.6367542150        3.0101851148
 Ti         6.9551376918        6.9556052743        4.5166020554
 Ti         9.2731797990        4.6357636533        3.0094769432
 Ti        11.5880305120        6.9583166560        4.5112078569
 Ti        -0.0001567097        9.2727309224        3.0095306883
 Ti         2.3153421178       11.5882257545        4.5151478307
 Ti         4.6354358810        9.2737840403        3.0093394622
 Ti         6.9579515477       11.5883611131        4.5112020270
 Ti         9.2728657777        9.2733213811        3.0220013465
 Ti        11.5906383105       11.5910281352        4.5166925156
 Ti        -0.0007701353       -0.0003242345        6.0181168743
 Ti         2.3172344696        2.3177737319        7.5221197888
 Ti         4.6369198945       -0.0011031116        6.0243002028
 Ti         6.9524166234        2.3203771530        7.5227972866
 Ti         9.2649657159       -0.0050322922        6.0187203022
 Ti        11.5934646855        2.3156514013        7.5228374675
 Ti        -0.0015263320        4.6373417902        6.0243271174
 Ti         2.3200090653        6.9526377664        7.5228967933
 Ti         4.6358040579        4.6361713046        6.0178151602
 Ti         6.9527783577        6.9532613541        7.5274636530
 Ti         9.2810825744        4.6412118297        6.0189369396
 Ti        11.5731564206        6.9732006939        7.5225918087
 Ti        -0.0052479517        9.2652562957        6.0188948729
 Ti         2.3152156982       11.5938996306        7.5229980466
 Ti         4.6407278210        9.2814679154        6.0188519231
 Ti         6.9728612518       11.5734176255        7.5225763670
 Ti         9.2729756673        9.2732478052        6.0467399997
 Ti        11.5929404004       11.5931696445        7.5277570982
 Ti         0.0030106242        0.0034852209        9.0305742406
 Ti         2.3178258832        2.3181756067       10.5351617016
 Ti         4.6442875032       -0.0083803816        9.0289051053
 Ti         6.9529604564        2.3195986755       10.5358865645
 Ti         9.2723044681        0.0022433347        9.0297483763
 Ti        11.5929843957        2.3166425270       10.5359265346
 Ti        -0.0088617934        4.6446306448        9.0290468797
 Ti         2.3192846484        6.9533001945       10.5359609331
 Ti         4.6321359776        4.6324768611        9.0301737730
 Ti         6.9536548597        6.9540799876       10.5324172458
 Ti         9.2736469262        4.6340214904        9.0299262261
 Ti        11.5731237449        6.9732757887       10.5371403622
 Ti         0.0019279318        9.2727146598        9.0299642011
 Ti         2.3163034558       11.5935129083       10.5360685346
 Ti         4.6335349597        9.2740799610        9.0298733195
 Ti         6.9728958829       11.5734812545       10.5371452043
 Ti         9.2729271068        9.2732990664        9.0297902820
 Ti        11.5922283692       11.5926679705       10.5327647384
 Ti        -0.0005203994       -0.0001414144       12.0418352983
 Ti         2.3174951164        2.3181792585       13.5438240211
 Ti         4.6367073972       -0.0010991052       12.0333573004
 Ti         6.9572841793        2.3210858190       13.5437179438
 Ti         9.2651928161       -0.0051517456       12.0410820491
 Ti        11.5879720799        2.3148561993       13.5436941051
 Ti        -0.0014527582        4.6371337880       12.0334582176
 Ti         2.3202414338        6.9582564432       13.5437696135
 Ti         4.6360816083        4.6364815914       12.0414199626
 Ti         6.9545049809        6.9548872334       13.5433059889
 Ti         9.2804248030        4.6412307710       12.0412591672
 Ti        11.5876036136        6.9581932618       13.5480384478
 Ti        -0.0056378503        9.2656542528       12.0412330483
 Ti         2.3141847941       11.5883260352       13.5438604563
 Ti         4.6408624720        9.2809049806       12.0411929711
 Ti         6.9577704763       11.5881748351       13.5480786170
 Ti         9.2729250547        9.2733249450       12.0132263355
 Ti        11.5912722381       11.5918973911       13.5434522098
  O         1.4166615307        1.4172355840        0.0006904645
  O         3.2183859004        3.2189566885        0.0006394833
  O         0.9021815374        3.7333981032        1.5052406429
  O         3.7328799678        0.9026371517        1.5052035531
  O         6.0554222853        1.4211316441        0.0006671142
  O         7.8520847135        3.2210711508        0.0008901373
  O         5.5346043022        3.7358968849        1.5051912355
  O         8.3751916873        0.9049842592        1.5051839712
  O        10.6934359345        1.4150191637        0.0009046564
  O        12.4900757921        3.2149779122        0.0007082212
  O        10.1703112853        3.7310742576        1.5051938730
  O        13.0109291316        0.9002750057        1.5052994132
  O         1.4205793299        6.0560234000        0.0006813611
  O         3.2205489093        7.8526792938        0.0008847386
  O         0.9044594937        8.3757123630        1.5052147357
  O         3.7353533844        5.5351736440        1.5051682397
  O         6.0510086516        6.0515708990        0.0013281824
  O         7.8492650533        7.8497351679        0.0023556698
  O         5.5340477245        8.3736636284        1.5052660038
  O         8.3731452865        5.5345240499        1.5052902733
  O        10.6952026272        6.0465303733        0.0041764596
  O        12.4995564861        7.8508479165        0.0041801572
  O        10.1766703821        8.3694841240        1.5053850325
  O        13.0137588877        5.5322502344        1.5051734179
  O         1.4144783876       10.6939437062        0.0009109883
  O         3.2144320713       12.4905777190        0.0006955495
  O         0.8997014587       13.0114855773        1.5052399057
  O         3.7306110970       10.1708610183        1.5051872475
  O         6.0461178471       10.6956910282        0.0041347507
  O         7.8503737616       12.5000495424        0.0041442520
  O         5.5317627245       13.0142161516        1.5051617167
  O         8.3690488937       10.1771197767        1.5053758864
  O        10.6964004361       10.6969361249        0.0023835851
  O        12.4945722953       12.4951700452        0.0014128419
  O        10.1724032109       13.0120437247        1.5052902962
  O        13.0114978404       10.1728838754        1.5052912652
  O         1.4167988286        1.4172766426        3.0096231397
  O         3.2183593585        3.2188315579        3.0096058869
  O         0.9023471184        3.7332788540        4.5137013651
  O         3.7328229905        0.9027919716        4.5137089567
  O         6.0555214755        1.4211031155        3.0094961368
  O         7.8520899355        3.2211445461        3.0093247100
  O         5.5354440325        3.7363468283        4.5146100136
  O         8.3764224127        0.9070753802        4.5113228290
  O        10.6934726606        1.4149910235        3.0093195638
  O        12.4900418944        3.2149885403        3.0095046211
  O        10.1692271534        3.7290457563        4.5113205334
  O        13.0102059757        0.8997546262        4.5146726928
  O         1.4206286946        6.0560463814        3.0094961607
  O         3.2206491131        7.8526198273        3.0093187969
  O         0.9066335941        8.3769267979        4.5113283781
  O         3.7358770872        5.5359297475        4.5146393742
  O         6.0509891323        6.0514711187        3.0089848480
  O         7.8492842775        7.8497561448        3.0080614204
  O         5.5338156255        8.3744184805        4.5137418684
  O         8.3739635800        5.5342899226        4.5137717015
  O        10.6952197620        6.0466567284        3.0061137790
  O        12.4994984630        7.8508209494        3.0061198529
  O        10.1781141805        8.3680787000        4.4913853439
  O        13.0155115636        5.5306227815        4.5094125564
  O         1.4144777367       10.6939751402        3.0093234184
  O         3.2144788687       12.4905340034        3.0095039048
  O         0.8992904579       13.0106740077        4.5146692248
  O         3.7286246225       10.1697302665        4.5113300860
  O         6.0462402590       10.6956707595        3.0060975016
  O         7.8503895390       12.4999589476        3.0060885561
  O         5.5302003547       13.0159289685        4.5093934248
  O         8.3676861006       10.1785071191        4.4913736144
  O        10.6963912289       10.6968940637        3.0081180131
  O        12.4946723407       12.4951599642        3.0090119837
  O        10.1717231434       13.0123446949        4.5137502783
  O        13.0118546327       10.1721659730        4.5137757413
  O         1.4168300362        1.4172879683        6.0184904110
  O         3.2183405234        3.2187891683        6.0184637472
  O         0.9036127765        3.7319820693        7.5220431557
  O         3.7315690388        0.9040364932        7.5220370475
  O         6.0563963895        1.4204135032        6.0188517327
  O         7.8546478247        3.2183925889        6.0202235033
  O         5.5346801657        3.7350150710        7.5243464600
  O         8.3728174978        0.9007133614        7.5271933111
  O        10.6910457502        1.4177304460        6.0202261123
  O        12.4892886945        3.2157088494        6.0188538438
  O        10.1728894224        3.7353920208        7.5272108958
  O        13.0109947861        0.9010888478        7.5243813472
  O         1.4199663484        6.0568383319        6.0188590699
  O         3.2179527749        7.8551073183        6.0202154897
  O         0.9002958996        8.3732753907        7.5272070299
  O         3.7345630554        5.5351288840        7.5243426070
  O         6.0499600783        6.0504109984        6.0185933404
  O         7.8468874958        7.8473251127        6.0130690786
  O         5.5361070900        8.3760100777        7.5211577610
  O         8.3755897043        5.5365629432        7.5211614282
  O        10.7036725998        6.0341692064        6.0044334796
  O        12.5120106534        7.8425827460        6.0043965118
  O        10.2118463711        8.3343692037        7.4277793546
  O        13.0190536491        5.5271632518        7.5235322785
  O         1.4172872206       10.6915033754        6.0202392371
  O         3.2152529359       12.4897567176        6.0188442113
  O         0.9006424632       13.0114583993        7.5243833693
  O         3.7349753684       10.1733572996        7.5271969042
  O         6.0338517538       10.7039969535        6.0043990765
  O         7.8422805883       12.5123155728        6.0043616565
  O         5.5267721331       13.0194474193        7.5235001367
  O         8.3340430678       10.2121618496        7.4277789514
  O        10.6989028064       10.6993317500        6.0131413520
  O        12.4958015491       12.4962442067        6.0186075359
  O        10.1701988144       13.0100978091        7.5211832735
  O        13.0096408559       10.1706301434        7.5211891034
  O         1.4172267545        1.4176951922        9.0296078037
  O         3.2179488021        3.2184088619        9.0296137019
  O         0.9037128135        3.7319372348       10.5370659202
  O         3.7314814333        0.9041623982       10.5370294565
  O         6.0554464887        1.4212896242        9.0295842489
  O         7.8536144795        3.2222578361        9.0296116980
  O         5.5345658263        3.7350317399       10.5347552713
  O         8.3728243575        0.9008837897       10.5317462067
  O        10.6920791836        1.4138911468        9.0296025345
  O        12.4902525543        3.2148373608        9.0295875368
  O        10.1728279188        3.7352380727       10.5317653334
  O        13.0111099081        0.9011018993       10.5347981887
  O         1.4208456238        6.0558961879        9.0295780711
  O         3.2218040512        7.8540767700        9.0296036485
  O         0.9004215287        8.3733265329       10.5317699456
  O         3.7345573776        5.5350562832       10.5347426692
  O         6.0476835087        6.0481280222        9.0296988795
  O         7.8388162599        7.8392483101        9.0295314137
  O         5.5362733803        8.3762006340       10.5383161932
  O         8.3757453788        5.5367502665       10.5383239046
  O        10.6883042095        6.0595591796        9.0298422363
  O        12.4866705411        7.8578968139        9.0298412648
  O        10.2115589868        8.3347698484       10.6323482386
  O        13.0192125055        5.5269450248       10.5354459931
  O         1.4134397913       10.6925475108        9.0295970477
  O         3.2143823167       12.4907136428        9.0295985886
  O         0.9006370376       13.0115874823       10.5348135737
  O         3.7347963303       10.1733250894       10.5317477960
  O         6.0591620988       10.6887046418        9.0298060442
  O         7.8575035766       12.4870605623        9.0298044078
  O         5.5265201865       13.0196401762       10.5354372982
  O         8.3343959613       10.2119358073       10.6322774620
  O        10.7070639524       10.7074833409        9.0296045969
  O        12.4981279428       12.4985664619        9.0297793580
  O        10.1699742972       13.0099191524       10.5383257916
  O        13.0094371953       10.1704221242       10.5383409183
  O         1.4168625230        1.4173544499       12.0405203966
  O         3.2182893594        3.2187820460       12.0405069033
  O         0.9023496680        3.7332154200       13.5451111157
  O         3.7326998737        0.9028032084       13.5451166358
  O         6.0563602309        1.4204107305       12.0398810111
  O         7.8546373993        3.2183772433       12.0385853896
  O         5.5353887086        3.7362897229       13.5442528566
  O         8.3763251227        0.9071501746       13.5476492716
  O        10.6909644582        1.4177540297       12.0385886406
  O        12.4892160665        3.2157112577       12.0398989907
  O        10.1692072184        3.7289212597       13.5476804855
  O        13.0101708975        0.8999039718       13.5443322983
  O         1.4199044674        6.0569013683       12.0398912381
  O         3.2178700847        7.8551755382       12.0385781976
  O         0.9066437427        8.3768461824       13.5476683766
  O         3.7357415446        5.5359492427       13.5442741877
  O         6.0498741425        6.0503583053       12.0403901358
  O         7.8467652599        7.8472321843       12.0463107700
  O         5.5336747809        8.3745158694       13.5449949960
  O         8.3740094773        5.5341590277       13.5450043050
  O        10.7043364009        6.0337016950       12.0546889371
  O        12.5125114081        7.8417839571       12.0546854268
  O        10.1782434212        8.3679425043       13.5683891170
  O        13.0155685634        5.5304588729       13.5495757665
  O         1.4172290030       10.6914627628       12.0386106245
  O         3.2151864580       12.4897147097       12.0398812457
  O         0.8993200612       13.0107241823       13.5443906805
  O         3.7284606703       10.1697593603       13.5476488144
  O         6.0333364901       10.7047395110       12.0546266238
  O         7.8413972934       12.5129169122       12.0546174969
  O         5.5299703942       13.0160250514       13.5495283325
  O         8.3675058545       10.1786865430       13.5683762241
  O        10.6989761348       10.6994764021       12.0463529359
  O        12.4958237447       12.4963136999       12.0404691789
  O        10.1715682801       13.0124401100       13.5450195640
  O        13.0118775071       10.1720564107       13.5450545123
&END COORD
  &KIND H
    BASIS_SET   DZVP-MOLOPT-SR-GTH
    POTENTIAL GTH-PBE-q1
  &END KIND
  &KIND Ti
    BASIS_SET  DZVP-MOLOPT-SR-GTH
    POTENTIAL GTH-PBE-q12
   &DFT_PLUS_U ON
     L 2
     U_MINUS_J [eV] 4.2
     U_RAMPING [eV] 0
   &END DFT_PLUS_U
  &END KIND
  &KIND O
    BASIS_SET  DZVP-MOLOPT-SR-GTH
    POTENTIAL GTH-PBE-q6
  &END KIND
  &KIND C
    BASIS_SET  DZVP-MOLOPT-SR-GTH
    POTENTIAL GTH-PBE-q4
  &END KIND
 &END SUBSYS
&END FORCE_EVAL
